p cnf 650 13152                         


c Clauses pour la case (1,1) avec indice 3
-1 0
6 0
7 0
2 0

c Clauses pour la case (5,1) avec indice 1
-5 0
-9 -4 0
-10 -4 0
-10 -9 0
-10 -9 -4 0
-10 -9 4 0
-10 9 -4 0
10 -9 -4 0
10 9 4 0

c Clauses pour la case (3,3) avec indice 1 1
-13 0
-17 -12 0
-18 -17 0
-18 -17 -12 0
-18 -17 12 0
18 -17 -12 0
-19 -17 -12 0
-19 -18 0
-19 -18 -12 0
-19 -18 12 0
-19 -18 -17 0
-19 -18 -17 -12 0
-19 -18 -17 12 0
-19 -18 17 0
-19 -18 17 -12 0
-19 -18 17 12 0
-19 18 -17 -12 0
19 -17 -12 0
19 -18 -17 0
19 -18 -17 -12 0
19 -18 -17 12 0
19 18 -17 -12 0
-14 -17 -12 0
-14 -18 -12 0
-14 -18 -17 0
-14 -18 -17 -12 0
-14 -18 -17 12 0
-14 -18 17 -12 0
-14 18 -17 -12 0
-14 -19 0
-14 -19 -12 0
-14 -19 12 0
-14 -19 -17 0
-14 -19 -17 -12 0
-14 -19 -17 12 0
-14 -19 17 0
-14 -19 17 -12 0
-14 -19 17 12 0
-14 -19 -18 0
-14 -19 -18 -12 0
-14 -19 -18 12 0
-14 -19 -18 -17 0
-14 -19 -18 -17 -12 0
-14 -19 -18 -17 12 0
-14 -19 -18 17 0
-14 -19 -18 17 -12 0
-14 -19 -18 17 12 0
-14 -19 18 0
-14 -19 18 -12 0
-14 -19 18 12 0
-14 -19 18 -17 0
-14 -19 18 -17 -12 0
-14 -19 18 -17 12 0
-14 -19 18 17 0
-14 -19 18 17 -12 0
-14 -19 18 17 12 0
-14 19 -17 -12 0
-14 19 -18 -12 0
-14 19 -18 -17 0
-14 19 -18 -17 -12 0
-14 19 -18 -17 12 0
-14 19 -18 17 -12 0
-14 19 18 -17 -12 0
14 -17 -12 0
14 -18 -17 0
14 -18 -17 -12 0
14 -18 -17 12 0
14 18 -17 -12 0
14 -19 -17 -12 0
14 -19 -18 0
14 -19 -18 -12 0
14 -19 -18 12 0
14 -19 -18 -17 0
14 -19 -18 -17 -12 0
14 -19 -18 -17 12 0
14 -19 -18 17 0
14 -19 -18 17 -12 0
14 -19 -18 17 12 0
14 -19 18 -17 -12 0
14 19 -17 -12 0
14 19 -18 -17 0
14 19 -18 -17 -12 0
14 19 -18 -17 12 0
14 19 18 -17 -12 0
-9 -17 -12 0
-9 -18 -12 0
-9 -18 -17 0
-9 -18 -17 -12 0
-9 -18 -17 12 0
-9 -18 17 -12 0
-9 18 -17 -12 0
-9 -19 -12 0
-9 -19 -17 0
-9 -19 -17 -12 0
-9 -19 -17 12 0
-9 -19 17 -12 0
-9 -19 -18 0
-9 -19 -18 -12 0
-9 -19 -18 12 0
-9 -19 -18 -17 0
-9 -19 -18 -17 -12 0
-9 -19 -18 -17 12 0
-9 -19 -18 17 0
-9 -19 -18 17 -12 0
-9 -19 -18 17 12 0
-9 -19 18 -12 0
-9 -19 18 -17 0
-9 -19 18 -17 -12 0
-9 -19 18 -17 12 0
-9 -19 18 17 -12 0
-9 19 -17 -12 0
-9 19 -18 -12 0
-9 19 -18 -17 0
-9 19 -18 -17 -12 0
-9 19 -18 -17 12 0
-9 19 -18 17 -12 0
-9 19 18 -17 -12 0
-9 -14 0
-9 -14 -12 0
-9 -14 12 0
-9 -14 -17 0
-9 -14 -17 -12 0
-9 -14 -17 12 0
-9 -14 17 0
-9 -14 17 -12 0
-9 -14 17 12 0
-9 -14 -18 0
-9 -14 -18 -12 0
-9 -14 -18 12 0
-9 -14 -18 -17 0
-9 -14 -18 -17 -12 0
-9 -14 -18 -17 12 0
-9 -14 -18 17 0
-9 -14 -18 17 -12 0
-9 -14 -18 17 12 0
-9 -14 18 0
-9 -14 18 -12 0
-9 -14 18 12 0
-9 -14 18 -17 0
-9 -14 18 -17 -12 0
-9 -14 18 -17 12 0
-9 -14 18 17 0
-9 -14 18 17 -12 0
-9 -14 18 17 12 0
-9 -14 -19 0
-9 -14 -19 -12 0
-9 -14 -19 12 0
-9 -14 -19 -17 0
-9 -14 -19 -17 -12 0
-9 -14 -19 -17 12 0
-9 -14 -19 17 0
-9 -14 -19 17 -12 0
-9 -14 -19 17 12 0
-9 -14 -19 -18 0
-9 -14 -19 -18 -12 0
-9 -14 -19 -18 12 0
-9 -14 -19 -18 -17 0
-9 -14 -19 -18 -17 -12 0
-9 -14 -19 -18 -17 12 0
-9 -14 -19 -18 17 0
-9 -14 -19 -18 17 -12 0
-9 -14 -19 -18 17 12 0
-9 -14 -19 18 0
-9 -14 -19 18 -12 0
-9 -14 -19 18 12 0
-9 -14 -19 18 -17 0
-9 -14 -19 18 -17 -12 0
-9 -14 -19 18 -17 12 0
-9 -14 -19 18 17 0
-9 -14 -19 18 17 -12 0
-9 -14 -19 18 17 12 0
-9 -14 19 0
-9 -14 19 -12 0
-9 -14 19 12 0
-9 -14 19 -17 0
-9 -14 19 -17 -12 0
-9 -14 19 -17 12 0
-9 -14 19 17 0
-9 -14 19 17 -12 0
-9 -14 19 17 12 0
-9 -14 19 -18 0
-9 -14 19 -18 -12 0
-9 -14 19 -18 12 0
-9 -14 19 -18 -17 0
-9 -14 19 -18 -17 -12 0
-9 -14 19 -18 -17 12 0
-9 -14 19 -18 17 0
-9 -14 19 -18 17 -12 0
-9 -14 19 -18 17 12 0
-9 -14 19 18 0
-9 -14 19 18 -12 0
-9 -14 19 18 12 0
-9 -14 19 18 -17 0
-9 -14 19 18 -17 -12 0
-9 -14 19 18 -17 12 0
-9 -14 19 18 17 0
-9 -14 19 18 17 -12 0
-9 -14 19 18 17 12 0
-9 14 -17 -12 0
-9 14 -18 -12 0
-9 14 -18 -17 0
-9 14 -18 -17 -12 0
-9 14 -18 -17 12 0
-9 14 -18 17 -12 0
-9 14 18 -17 -12 0
-9 14 -19 -12 0
-9 14 -19 -17 0
-9 14 -19 -17 -12 0
-9 14 -19 -17 12 0
-9 14 -19 17 -12 0
-9 14 -19 -18 0
-9 14 -19 -18 -12 0
-9 14 -19 -18 12 0
-9 14 -19 -18 -17 0
-9 14 -19 -18 -17 -12 0
-9 14 -19 -18 -17 12 0
-9 14 -19 -18 17 0
-9 14 -19 -18 17 -12 0
-9 14 -19 -18 17 12 0
-9 14 -19 18 -12 0
-9 14 -19 18 -17 0
-9 14 -19 18 -17 -12 0
-9 14 -19 18 -17 12 0
-9 14 -19 18 17 -12 0
-9 14 19 -17 -12 0
-9 14 19 -18 -12 0
-9 14 19 -18 -17 0
-9 14 19 -18 -17 -12 0
-9 14 19 -18 -17 12 0
-9 14 19 -18 17 -12 0
-9 14 19 18 -17 -12 0
9 -17 -12 0
9 -18 -17 0
9 -18 -17 -12 0
9 -18 -17 12 0
9 18 -17 -12 0
9 -19 -17 -12 0
9 -19 -18 0
9 -19 -18 -12 0
9 -19 -18 12 0
9 -19 -18 -17 0
9 -19 -18 -17 -12 0
9 -19 -18 -17 12 0
9 -19 -18 17 0
9 -19 -18 17 -12 0
9 -19 -18 17 12 0
9 -19 18 -17 -12 0
9 19 -17 -12 0
9 19 -18 -17 0
9 19 -18 -17 -12 0
9 19 -18 -17 12 0
9 19 18 -17 -12 0
9 -14 -17 -12 0
9 -14 -18 -12 0
9 -14 -18 -17 0
9 -14 -18 -17 -12 0
9 -14 -18 -17 12 0
9 -14 -18 17 -12 0
9 -14 18 -17 -12 0
9 -14 -19 0
9 -14 -19 -12 0
9 -14 -19 12 0
9 -14 -19 -17 0
9 -14 -19 -17 -12 0
9 -14 -19 -17 12 0
9 -14 -19 17 0
9 -14 -19 17 -12 0
9 -14 -19 17 12 0
9 -14 -19 -18 0
9 -14 -19 -18 -12 0
9 -14 -19 -18 12 0
9 -14 -19 -18 -17 0
9 -14 -19 -18 -17 -12 0
9 -14 -19 -18 -17 12 0
9 -14 -19 -18 17 0
9 -14 -19 -18 17 -12 0
9 -14 -19 -18 17 12 0
9 -14 -19 18 0
9 -14 -19 18 -12 0
9 -14 -19 18 12 0
9 -14 -19 18 -17 0
9 -14 -19 18 -17 -12 0
9 -14 -19 18 -17 12 0
9 -14 -19 18 17 0
9 -14 -19 18 17 -12 0
9 -14 -19 18 17 12 0
9 -14 19 -17 -12 0
9 -14 19 -18 -12 0
9 -14 19 -18 -17 0
9 -14 19 -18 -17 -12 0
9 -14 19 -18 -17 12 0
9 -14 19 -18 17 -12 0
9 -14 19 18 -17 -12 0
9 14 -17 -12 0
9 14 -18 -17 0
9 14 -18 -17 -12 0
9 14 -18 -17 12 0
9 14 18 -17 -12 0
9 14 -19 -17 -12 0
9 14 -19 -18 0
9 14 -19 -18 -12 0
9 14 -19 -18 12 0
9 14 -19 -18 -17 0
9 14 -19 -18 -17 -12 0
9 14 -19 -18 -17 12 0
9 14 -19 -18 17 0
9 14 -19 -18 17 -12 0
9 14 -19 -18 17 12 0
9 14 -19 18 -17 -12 0
9 14 19 -17 -12 0
9 14 19 -18 -17 0
9 14 19 -18 -17 -12 0
9 14 19 -18 -17 12 0
9 14 19 18 -17 -12 0
9 14 19 18 17 12 0
-8 -17 -12 0
-8 -18 -12 0
-8 -18 -17 0
-8 -18 -17 -12 0
-8 -18 -17 12 0
-8 -18 17 -12 0
-8 18 -17 -12 0
-8 -19 -12 0
-8 -19 -17 0
-8 -19 -17 -12 0
-8 -19 -17 12 0
-8 -19 17 -12 0
-8 -19 -18 0
-8 -19 -18 -12 0
-8 -19 -18 12 0
-8 -19 -18 -17 0
-8 -19 -18 -17 -12 0
-8 -19 -18 -17 12 0
-8 -19 -18 17 0
-8 -19 -18 17 -12 0
-8 -19 -18 17 12 0
-8 -19 18 -12 0
-8 -19 18 -17 0
-8 -19 18 -17 -12 0
-8 -19 18 -17 12 0
-8 -19 18 17 -12 0
-8 19 -17 -12 0
-8 19 -18 -12 0
-8 19 -18 -17 0
-8 19 -18 -17 -12 0
-8 19 -18 -17 12 0
-8 19 -18 17 -12 0
-8 19 18 -17 -12 0
-8 -14 -12 0
-8 -14 -17 0
-8 -14 -17 -12 0
-8 -14 -17 12 0
-8 -14 17 -12 0
-8 -14 -18 0
-8 -14 -18 -12 0
-8 -14 -18 12 0
-8 -14 -18 -17 0
-8 -14 -18 -17 -12 0
-8 -14 -18 -17 12 0
-8 -14 -18 17 0
-8 -14 -18 17 -12 0
-8 -14 -18 17 12 0
-8 -14 18 -12 0
-8 -14 18 -17 0
-8 -14 18 -17 -12 0
-8 -14 18 -17 12 0
-8 -14 18 17 -12 0
-8 -14 -19 0
-8 -14 -19 -12 0
-8 -14 -19 12 0
-8 -14 -19 -17 0
-8 -14 -19 -17 -12 0
-8 -14 -19 -17 12 0
-8 -14 -19 17 0
-8 -14 -19 17 -12 0
-8 -14 -19 17 12 0
-8 -14 -19 -18 0
-8 -14 -19 -18 -12 0
-8 -14 -19 -18 12 0
-8 -14 -19 -18 -17 0
-8 -14 -19 -18 -17 -12 0
-8 -14 -19 -18 -17 12 0
-8 -14 -19 -18 17 0
-8 -14 -19 -18 17 -12 0
-8 -14 -19 -18 17 12 0
-8 -14 -19 18 0
-8 -14 -19 18 -12 0
-8 -14 -19 18 12 0
-8 -14 -19 18 -17 0
-8 -14 -19 18 -17 -12 0
-8 -14 -19 18 -17 12 0
-8 -14 -19 18 17 0
-8 -14 -19 18 17 -12 0
-8 -14 -19 18 17 12 0
-8 -14 19 -12 0
-8 -14 19 -17 0
-8 -14 19 -17 -12 0
-8 -14 19 -17 12 0
-8 -14 19 17 -12 0
-8 -14 19 -18 0
-8 -14 19 -18 -12 0
-8 -14 19 -18 12 0
-8 -14 19 -18 -17 0
-8 -14 19 -18 -17 -12 0
-8 -14 19 -18 -17 12 0
-8 -14 19 -18 17 0
-8 -14 19 -18 17 -12 0
-8 -14 19 -18 17 12 0
-8 -14 19 18 -12 0
-8 -14 19 18 -17 0
-8 -14 19 18 -17 -12 0
-8 -14 19 18 -17 12 0
-8 -14 19 18 17 -12 0
-8 14 -17 -12 0
-8 14 -18 -12 0
-8 14 -18 -17 0
-8 14 -18 -17 -12 0
-8 14 -18 -17 12 0
-8 14 -18 17 -12 0
-8 14 18 -17 -12 0
-8 14 -19 -12 0
-8 14 -19 -17 0
-8 14 -19 -17 -12 0
-8 14 -19 -17 12 0
-8 14 -19 17 -12 0
-8 14 -19 -18 0
-8 14 -19 -18 -12 0
-8 14 -19 -18 12 0
-8 14 -19 -18 -17 0
-8 14 -19 -18 -17 -12 0
-8 14 -19 -18 -17 12 0
-8 14 -19 -18 17 0
-8 14 -19 -18 17 -12 0
-8 14 -19 -18 17 12 0
-8 14 -19 18 -12 0
-8 14 -19 18 -17 0
-8 14 -19 18 -17 -12 0
-8 14 -19 18 -17 12 0
-8 14 -19 18 17 -12 0
-8 14 19 -17 -12 0
-8 14 19 -18 -12 0
-8 14 19 -18 -17 0
-8 14 19 -18 -17 -12 0
-8 14 19 -18 -17 12 0
-8 14 19 -18 17 -12 0
-8 14 19 18 -17 -12 0
-8 14 19 18 17 12 0
-8 -9 0
-8 -9 -12 0
-8 -9 12 0
-8 -9 -17 0
-8 -9 -17 -12 0
-8 -9 -17 12 0
-8 -9 17 0
-8 -9 17 -12 0
-8 -9 17 12 0
-8 -9 -18 0
-8 -9 -18 -12 0
-8 -9 -18 12 0
-8 -9 -18 -17 0
-8 -9 -18 -17 -12 0
-8 -9 -18 -17 12 0
-8 -9 -18 17 0
-8 -9 -18 17 -12 0
-8 -9 -18 17 12 0
-8 -9 18 0
-8 -9 18 -12 0
-8 -9 18 12 0
-8 -9 18 -17 0
-8 -9 18 -17 -12 0
-8 -9 18 -17 12 0
-8 -9 18 17 0
-8 -9 18 17 -12 0
-8 -9 18 17 12 0
-8 -9 -19 0
-8 -9 -19 -12 0
-8 -9 -19 12 0
-8 -9 -19 -17 0
-8 -9 -19 -17 -12 0
-8 -9 -19 -17 12 0
-8 -9 -19 17 0
-8 -9 -19 17 -12 0
-8 -9 -19 17 12 0
-8 -9 -19 -18 0
-8 -9 -19 -18 -12 0
-8 -9 -19 -18 12 0
-8 -9 -19 -18 -17 0
-8 -9 -19 -18 -17 -12 0
-8 -9 -19 -18 -17 12 0
-8 -9 -19 -18 17 0
-8 -9 -19 -18 17 -12 0
-8 -9 -19 -18 17 12 0
-8 -9 -19 18 0
-8 -9 -19 18 -12 0
-8 -9 -19 18 12 0
-8 -9 -19 18 -17 0
-8 -9 -19 18 -17 -12 0
-8 -9 -19 18 -17 12 0
-8 -9 -19 18 17 0
-8 -9 -19 18 17 -12 0
-8 -9 -19 18 17 12 0
-8 -9 19 0
-8 -9 19 -12 0
-8 -9 19 12 0
-8 -9 19 -17 0
-8 -9 19 -17 -12 0
-8 -9 19 -17 12 0
-8 -9 19 17 0
-8 -9 19 17 -12 0
-8 -9 19 17 12 0
-8 -9 19 -18 0
-8 -9 19 -18 -12 0
-8 -9 19 -18 12 0
-8 -9 19 -18 -17 0
-8 -9 19 -18 -17 -12 0
-8 -9 19 -18 -17 12 0
-8 -9 19 -18 17 0
-8 -9 19 -18 17 -12 0
-8 -9 19 -18 17 12 0
-8 -9 19 18 0
-8 -9 19 18 -12 0
-8 -9 19 18 12 0
-8 -9 19 18 -17 0
-8 -9 19 18 -17 -12 0
-8 -9 19 18 -17 12 0
-8 -9 19 18 17 0
-8 -9 19 18 17 -12 0
-8 -9 19 18 17 12 0
-8 -9 -14 0
-8 -9 -14 -12 0
-8 -9 -14 12 0
-8 -9 -14 -17 0
-8 -9 -14 -17 -12 0
-8 -9 -14 -17 12 0
-8 -9 -14 17 0
-8 -9 -14 17 -12 0
-8 -9 -14 17 12 0
-8 -9 -14 -18 0
-8 -9 -14 -18 -12 0
-8 -9 -14 -18 12 0
-8 -9 -14 -18 -17 0
-8 -9 -14 -18 -17 -12 0
-8 -9 -14 -18 -17 12 0
-8 -9 -14 -18 17 0
-8 -9 -14 -18 17 -12 0
-8 -9 -14 -18 17 12 0
-8 -9 -14 18 0
-8 -9 -14 18 -12 0
-8 -9 -14 18 12 0
-8 -9 -14 18 -17 0
-8 -9 -14 18 -17 -12 0
-8 -9 -14 18 -17 12 0
-8 -9 -14 18 17 0
-8 -9 -14 18 17 -12 0
-8 -9 -14 18 17 12 0
-8 -9 -14 -19 0
-8 -9 -14 -19 -12 0
-8 -9 -14 -19 12 0
-8 -9 -14 -19 -17 0
-8 -9 -14 -19 -17 -12 0
-8 -9 -14 -19 -17 12 0
-8 -9 -14 -19 17 0
-8 -9 -14 -19 17 -12 0
-8 -9 -14 -19 17 12 0
-8 -9 -14 -19 -18 0
-8 -9 -14 -19 -18 -12 0
-8 -9 -14 -19 -18 12 0
-8 -9 -14 -19 -18 -17 0
-8 -9 -14 -19 -18 -17 -12 0
-8 -9 -14 -19 -18 -17 12 0
-8 -9 -14 -19 -18 17 0
-8 -9 -14 -19 -18 17 -12 0
-8 -9 -14 -19 -18 17 12 0
-8 -9 -14 -19 18 0
-8 -9 -14 -19 18 -12 0
-8 -9 -14 -19 18 12 0
-8 -9 -14 -19 18 -17 0
-8 -9 -14 -19 18 -17 -12 0
-8 -9 -14 -19 18 -17 12 0
-8 -9 -14 -19 18 17 0
-8 -9 -14 -19 18 17 -12 0
-8 -9 -14 -19 18 17 12 0
-8 -9 -14 19 0
-8 -9 -14 19 -12 0
-8 -9 -14 19 12 0
-8 -9 -14 19 -17 0
-8 -9 -14 19 -17 -12 0
-8 -9 -14 19 -17 12 0
-8 -9 -14 19 17 0
-8 -9 -14 19 17 -12 0
-8 -9 -14 19 17 12 0
-8 -9 -14 19 -18 0
-8 -9 -14 19 -18 -12 0
-8 -9 -14 19 -18 12 0
-8 -9 -14 19 -18 -17 0
-8 -9 -14 19 -18 -17 -12 0
-8 -9 -14 19 -18 -17 12 0
-8 -9 -14 19 -18 17 0
-8 -9 -14 19 -18 17 -12 0
-8 -9 -14 19 -18 17 12 0
-8 -9 -14 19 18 0
-8 -9 -14 19 18 -12 0
-8 -9 -14 19 18 12 0
-8 -9 -14 19 18 -17 0
-8 -9 -14 19 18 -17 -12 0
-8 -9 -14 19 18 -17 12 0
-8 -9 -14 19 18 17 0
-8 -9 -14 19 18 17 -12 0
-8 -9 -14 19 18 17 12 0
-8 -9 14 0
-8 -9 14 -12 0
-8 -9 14 12 0
-8 -9 14 -17 0
-8 -9 14 -17 -12 0
-8 -9 14 -17 12 0
-8 -9 14 17 0
-8 -9 14 17 -12 0
-8 -9 14 17 12 0
-8 -9 14 -18 0
-8 -9 14 -18 -12 0
-8 -9 14 -18 12 0
-8 -9 14 -18 -17 0
-8 -9 14 -18 -17 -12 0
-8 -9 14 -18 -17 12 0
-8 -9 14 -18 17 0
-8 -9 14 -18 17 -12 0
-8 -9 14 -18 17 12 0
-8 -9 14 18 0
-8 -9 14 18 -12 0
-8 -9 14 18 12 0
-8 -9 14 18 -17 0
-8 -9 14 18 -17 -12 0
-8 -9 14 18 -17 12 0
-8 -9 14 18 17 0
-8 -9 14 18 17 -12 0
-8 -9 14 18 17 12 0
-8 -9 14 -19 0
-8 -9 14 -19 -12 0
-8 -9 14 -19 12 0
-8 -9 14 -19 -17 0
-8 -9 14 -19 -17 -12 0
-8 -9 14 -19 -17 12 0
-8 -9 14 -19 17 0
-8 -9 14 -19 17 -12 0
-8 -9 14 -19 17 12 0
-8 -9 14 -19 -18 0
-8 -9 14 -19 -18 -12 0
-8 -9 14 -19 -18 12 0
-8 -9 14 -19 -18 -17 0
-8 -9 14 -19 -18 -17 -12 0
-8 -9 14 -19 -18 -17 12 0
-8 -9 14 -19 -18 17 0
-8 -9 14 -19 -18 17 -12 0
-8 -9 14 -19 -18 17 12 0
-8 -9 14 -19 18 0
-8 -9 14 -19 18 -12 0
-8 -9 14 -19 18 12 0
-8 -9 14 -19 18 -17 0
-8 -9 14 -19 18 -17 -12 0
-8 -9 14 -19 18 -17 12 0
-8 -9 14 -19 18 17 0
-8 -9 14 -19 18 17 -12 0
-8 -9 14 -19 18 17 12 0
-8 -9 14 19 0
-8 -9 14 19 -12 0
-8 -9 14 19 12 0
-8 -9 14 19 -17 0
-8 -9 14 19 -17 -12 0
-8 -9 14 19 -17 12 0
-8 -9 14 19 17 0
-8 -9 14 19 17 -12 0
-8 -9 14 19 17 12 0
-8 -9 14 19 -18 0
-8 -9 14 19 -18 -12 0
-8 -9 14 19 -18 12 0
-8 -9 14 19 -18 -17 0
-8 -9 14 19 -18 -17 -12 0
-8 -9 14 19 -18 -17 12 0
-8 -9 14 19 -18 17 0
-8 -9 14 19 -18 17 -12 0
-8 -9 14 19 -18 17 12 0
-8 -9 14 19 18 0
-8 -9 14 19 18 -12 0
-8 -9 14 19 18 12 0
-8 -9 14 19 18 -17 0
-8 -9 14 19 18 -17 -12 0
-8 -9 14 19 18 -17 12 0
-8 -9 14 19 18 17 0
-8 -9 14 19 18 17 -12 0
-8 -9 14 19 18 17 12 0
-8 9 -17 -12 0
-8 9 -18 -12 0
-8 9 -18 -17 0
-8 9 -18 -17 -12 0
-8 9 -18 -17 12 0
-8 9 -18 17 -12 0
-8 9 18 -17 -12 0
-8 9 -19 -12 0
-8 9 -19 -17 0
-8 9 -19 -17 -12 0
-8 9 -19 -17 12 0
-8 9 -19 17 -12 0
-8 9 -19 -18 0
-8 9 -19 -18 -12 0
-8 9 -19 -18 12 0
-8 9 -19 -18 -17 0
-8 9 -19 -18 -17 -12 0
-8 9 -19 -18 -17 12 0
-8 9 -19 -18 17 0
-8 9 -19 -18 17 -12 0
-8 9 -19 -18 17 12 0
-8 9 -19 18 -12 0
-8 9 -19 18 -17 0
-8 9 -19 18 -17 -12 0
-8 9 -19 18 -17 12 0
-8 9 -19 18 17 -12 0
-8 9 19 -17 -12 0
-8 9 19 -18 -12 0
-8 9 19 -18 -17 0
-8 9 19 -18 -17 -12 0
-8 9 19 -18 -17 12 0
-8 9 19 -18 17 -12 0
-8 9 19 18 -17 -12 0
-8 9 -14 -12 0
-8 9 -14 -17 0
-8 9 -14 -17 -12 0
-8 9 -14 -17 12 0
-8 9 -14 17 -12 0
-8 9 -14 -18 0
-8 9 -14 -18 -12 0
-8 9 -14 -18 12 0
-8 9 -14 -18 -17 0
-8 9 -14 -18 -17 -12 0
-8 9 -14 -18 -17 12 0
-8 9 -14 -18 17 0
-8 9 -14 -18 17 -12 0
-8 9 -14 -18 17 12 0
-8 9 -14 18 -12 0
-8 9 -14 18 -17 0
-8 9 -14 18 -17 -12 0
-8 9 -14 18 -17 12 0
-8 9 -14 18 17 -12 0
-8 9 -14 -19 0
-8 9 -14 -19 -12 0
-8 9 -14 -19 12 0
-8 9 -14 -19 -17 0
-8 9 -14 -19 -17 -12 0
-8 9 -14 -19 -17 12 0
-8 9 -14 -19 17 0
-8 9 -14 -19 17 -12 0
-8 9 -14 -19 17 12 0
-8 9 -14 -19 -18 0
-8 9 -14 -19 -18 -12 0
-8 9 -14 -19 -18 12 0
-8 9 -14 -19 -18 -17 0
-8 9 -14 -19 -18 -17 -12 0
-8 9 -14 -19 -18 -17 12 0
-8 9 -14 -19 -18 17 0
-8 9 -14 -19 -18 17 -12 0
-8 9 -14 -19 -18 17 12 0
-8 9 -14 -19 18 0
-8 9 -14 -19 18 -12 0
-8 9 -14 -19 18 12 0
-8 9 -14 -19 18 -17 0
-8 9 -14 -19 18 -17 -12 0
-8 9 -14 -19 18 -17 12 0
-8 9 -14 -19 18 17 0
-8 9 -14 -19 18 17 -12 0
-8 9 -14 -19 18 17 12 0
-8 9 -14 19 -12 0
-8 9 -14 19 -17 0
-8 9 -14 19 -17 -12 0
-8 9 -14 19 -17 12 0
-8 9 -14 19 17 -12 0
-8 9 -14 19 -18 0
-8 9 -14 19 -18 -12 0
-8 9 -14 19 -18 12 0
-8 9 -14 19 -18 -17 0
-8 9 -14 19 -18 -17 -12 0
-8 9 -14 19 -18 -17 12 0
-8 9 -14 19 -18 17 0
-8 9 -14 19 -18 17 -12 0
-8 9 -14 19 -18 17 12 0
-8 9 -14 19 18 -12 0
-8 9 -14 19 18 -17 0
-8 9 -14 19 18 -17 -12 0
-8 9 -14 19 18 -17 12 0
-8 9 -14 19 18 17 -12 0
-8 9 14 -17 -12 0
-8 9 14 -18 -12 0
-8 9 14 -18 -17 0
-8 9 14 -18 -17 -12 0
-8 9 14 -18 -17 12 0
-8 9 14 -18 17 -12 0
-8 9 14 18 -17 -12 0
-8 9 14 -19 -12 0
-8 9 14 -19 -17 0
-8 9 14 -19 -17 -12 0
-8 9 14 -19 -17 12 0
-8 9 14 -19 17 -12 0
-8 9 14 -19 -18 0
-8 9 14 -19 -18 -12 0
-8 9 14 -19 -18 12 0
-8 9 14 -19 -18 -17 0
-8 9 14 -19 -18 -17 -12 0
-8 9 14 -19 -18 -17 12 0
-8 9 14 -19 -18 17 0
-8 9 14 -19 -18 17 -12 0
-8 9 14 -19 -18 17 12 0
-8 9 14 -19 18 -12 0
-8 9 14 -19 18 -17 0
-8 9 14 -19 18 -17 -12 0
-8 9 14 -19 18 -17 12 0
-8 9 14 -19 18 17 -12 0
-8 9 14 19 -17 -12 0
-8 9 14 19 -18 -12 0
-8 9 14 19 -18 -17 0
-8 9 14 19 -18 -17 -12 0
-8 9 14 19 -18 -17 12 0
-8 9 14 19 -18 17 -12 0
-8 9 14 19 18 -17 -12 0
-8 9 14 19 18 17 12 0
8 -17 -12 0
8 -18 -17 0
8 -18 -17 -12 0
8 -18 -17 12 0
8 18 -17 -12 0
8 -19 -17 -12 0
8 -19 -18 0
8 -19 -18 -12 0
8 -19 -18 12 0
8 -19 -18 -17 0
8 -19 -18 -17 -12 0
8 -19 -18 -17 12 0
8 -19 -18 17 0
8 -19 -18 17 -12 0
8 -19 -18 17 12 0
8 -19 18 -17 -12 0
8 19 -17 -12 0
8 19 -18 -17 0
8 19 -18 -17 -12 0
8 19 -18 -17 12 0
8 19 18 -17 -12 0
8 -14 -17 -12 0
8 -14 -18 -12 0
8 -14 -18 -17 0
8 -14 -18 -17 -12 0
8 -14 -18 -17 12 0
8 -14 -18 17 -12 0
8 -14 18 -17 -12 0
8 -14 -19 0
8 -14 -19 -12 0
8 -14 -19 12 0
8 -14 -19 -17 0
8 -14 -19 -17 -12 0
8 -14 -19 -17 12 0
8 -14 -19 17 0
8 -14 -19 17 -12 0
8 -14 -19 17 12 0
8 -14 -19 -18 0
8 -14 -19 -18 -12 0
8 -14 -19 -18 12 0
8 -14 -19 -18 -17 0
8 -14 -19 -18 -17 -12 0
8 -14 -19 -18 -17 12 0
8 -14 -19 -18 17 0
8 -14 -19 -18 17 -12 0
8 -14 -19 -18 17 12 0
8 -14 -19 18 0
8 -14 -19 18 -12 0
8 -14 -19 18 12 0
8 -14 -19 18 -17 0
8 -14 -19 18 -17 -12 0
8 -14 -19 18 -17 12 0
8 -14 -19 18 17 0
8 -14 -19 18 17 -12 0
8 -14 -19 18 17 12 0
8 -14 19 -17 -12 0
8 -14 19 -18 -12 0
8 -14 19 -18 -17 0
8 -14 19 -18 -17 -12 0
8 -14 19 -18 -17 12 0
8 -14 19 -18 17 -12 0
8 -14 19 18 -17 -12 0
8 14 -17 -12 0
8 14 -18 -17 0
8 14 -18 -17 -12 0
8 14 -18 -17 12 0
8 14 18 -17 -12 0
8 14 -19 -17 -12 0
8 14 -19 -18 0
8 14 -19 -18 -12 0
8 14 -19 -18 12 0
8 14 -19 -18 -17 0
8 14 -19 -18 -17 -12 0
8 14 -19 -18 -17 12 0
8 14 -19 -18 17 0
8 14 -19 -18 17 -12 0
8 14 -19 -18 17 12 0
8 14 -19 18 -17 -12 0
8 14 19 -17 -12 0
8 14 19 -18 -17 0
8 14 19 -18 -17 -12 0
8 14 19 -18 -17 12 0
8 14 19 18 -17 -12 0
8 -9 -17 -12 0
8 -9 -18 -12 0
8 -9 -18 -17 0
8 -9 -18 -17 -12 0
8 -9 -18 -17 12 0
8 -9 -18 17 -12 0
8 -9 18 -17 -12 0
8 -9 -19 -12 0
8 -9 -19 -17 0
8 -9 -19 -17 -12 0
8 -9 -19 -17 12 0
8 -9 -19 17 -12 0
8 -9 -19 -18 0
8 -9 -19 -18 -12 0
8 -9 -19 -18 12 0
8 -9 -19 -18 -17 0
8 -9 -19 -18 -17 -12 0
8 -9 -19 -18 -17 12 0
8 -9 -19 -18 17 0
8 -9 -19 -18 17 -12 0
8 -9 -19 -18 17 12 0
8 -9 -19 18 -12 0
8 -9 -19 18 -17 0
8 -9 -19 18 -17 -12 0
8 -9 -19 18 -17 12 0
8 -9 -19 18 17 -12 0
8 -9 19 -17 -12 0
8 -9 19 -18 -12 0
8 -9 19 -18 -17 0
8 -9 19 -18 -17 -12 0
8 -9 19 -18 -17 12 0
8 -9 19 -18 17 -12 0
8 -9 19 18 -17 -12 0
8 -9 -14 0
8 -9 -14 -12 0
8 -9 -14 12 0
8 -9 -14 -17 0
8 -9 -14 -17 -12 0
8 -9 -14 -17 12 0
8 -9 -14 17 0
8 -9 -14 17 -12 0
8 -9 -14 17 12 0
8 -9 -14 -18 0
8 -9 -14 -18 -12 0
8 -9 -14 -18 12 0
8 -9 -14 -18 -17 0
8 -9 -14 -18 -17 -12 0
8 -9 -14 -18 -17 12 0
8 -9 -14 -18 17 0
8 -9 -14 -18 17 -12 0
8 -9 -14 -18 17 12 0
8 -9 -14 18 0
8 -9 -14 18 -12 0
8 -9 -14 18 12 0
8 -9 -14 18 -17 0
8 -9 -14 18 -17 -12 0
8 -9 -14 18 -17 12 0
8 -9 -14 18 17 0
8 -9 -14 18 17 -12 0
8 -9 -14 18 17 12 0
8 -9 -14 -19 0
8 -9 -14 -19 -12 0
8 -9 -14 -19 12 0
8 -9 -14 -19 -17 0
8 -9 -14 -19 -17 -12 0
8 -9 -14 -19 -17 12 0
8 -9 -14 -19 17 0
8 -9 -14 -19 17 -12 0
8 -9 -14 -19 17 12 0
8 -9 -14 -19 -18 0
8 -9 -14 -19 -18 -12 0
8 -9 -14 -19 -18 12 0
8 -9 -14 -19 -18 -17 0
8 -9 -14 -19 -18 -17 -12 0
8 -9 -14 -19 -18 -17 12 0
8 -9 -14 -19 -18 17 0
8 -9 -14 -19 -18 17 -12 0
8 -9 -14 -19 -18 17 12 0
8 -9 -14 -19 18 0
8 -9 -14 -19 18 -12 0
8 -9 -14 -19 18 12 0
8 -9 -14 -19 18 -17 0
8 -9 -14 -19 18 -17 -12 0
8 -9 -14 -19 18 -17 12 0
8 -9 -14 -19 18 17 0
8 -9 -14 -19 18 17 -12 0
8 -9 -14 -19 18 17 12 0
8 -9 -14 19 0
8 -9 -14 19 -12 0
8 -9 -14 19 12 0
8 -9 -14 19 -17 0
8 -9 -14 19 -17 -12 0
8 -9 -14 19 -17 12 0
8 -9 -14 19 17 0
8 -9 -14 19 17 -12 0
8 -9 -14 19 17 12 0
8 -9 -14 19 -18 0
8 -9 -14 19 -18 -12 0
8 -9 -14 19 -18 12 0
8 -9 -14 19 -18 -17 0
8 -9 -14 19 -18 -17 -12 0
8 -9 -14 19 -18 -17 12 0
8 -9 -14 19 -18 17 0
8 -9 -14 19 -18 17 -12 0
8 -9 -14 19 -18 17 12 0
8 -9 -14 19 18 0
8 -9 -14 19 18 -12 0
8 -9 -14 19 18 12 0
8 -9 -14 19 18 -17 0
8 -9 -14 19 18 -17 -12 0
8 -9 -14 19 18 -17 12 0
8 -9 -14 19 18 17 0
8 -9 -14 19 18 17 -12 0
8 -9 -14 19 18 17 12 0
8 -9 14 -17 -12 0
8 -9 14 -18 -12 0
8 -9 14 -18 -17 0
8 -9 14 -18 -17 -12 0
8 -9 14 -18 -17 12 0
8 -9 14 -18 17 -12 0
8 -9 14 18 -17 -12 0
8 -9 14 -19 -12 0
8 -9 14 -19 -17 0
8 -9 14 -19 -17 -12 0
8 -9 14 -19 -17 12 0
8 -9 14 -19 17 -12 0
8 -9 14 -19 -18 0
8 -9 14 -19 -18 -12 0
8 -9 14 -19 -18 12 0
8 -9 14 -19 -18 -17 0
8 -9 14 -19 -18 -17 -12 0
8 -9 14 -19 -18 -17 12 0
8 -9 14 -19 -18 17 0
8 -9 14 -19 -18 17 -12 0
8 -9 14 -19 -18 17 12 0
8 -9 14 -19 18 -12 0
8 -9 14 -19 18 -17 0
8 -9 14 -19 18 -17 -12 0
8 -9 14 -19 18 -17 12 0
8 -9 14 -19 18 17 -12 0
8 -9 14 19 -17 -12 0
8 -9 14 19 -18 -12 0
8 -9 14 19 -18 -17 0
8 -9 14 19 -18 -17 -12 0
8 -9 14 19 -18 -17 12 0
8 -9 14 19 -18 17 -12 0
8 -9 14 19 18 -17 -12 0
8 9 -17 -12 0
8 9 -18 -17 0
8 9 -18 -17 -12 0
8 9 -18 -17 12 0
8 9 18 -17 -12 0
8 9 -19 -17 -12 0
8 9 -19 -18 0
8 9 -19 -18 -12 0
8 9 -19 -18 12 0
8 9 -19 -18 -17 0
8 9 -19 -18 -17 -12 0
8 9 -19 -18 -17 12 0
8 9 -19 -18 17 0
8 9 -19 -18 17 -12 0
8 9 -19 -18 17 12 0
8 9 -19 18 -17 -12 0
8 9 19 -17 -12 0
8 9 19 -18 -17 0
8 9 19 -18 -17 -12 0
8 9 19 -18 -17 12 0
8 9 19 18 -17 -12 0
8 9 -14 -17 -12 0
8 9 -14 -18 -12 0
8 9 -14 -18 -17 0
8 9 -14 -18 -17 -12 0
8 9 -14 -18 -17 12 0
8 9 -14 -18 17 -12 0
8 9 -14 18 -17 -12 0
8 9 -14 -19 0
8 9 -14 -19 -12 0
8 9 -14 -19 12 0
8 9 -14 -19 -17 0
8 9 -14 -19 -17 -12 0
8 9 -14 -19 -17 12 0
8 9 -14 -19 17 0
8 9 -14 -19 17 -12 0
8 9 -14 -19 17 12 0
8 9 -14 -19 -18 0
8 9 -14 -19 -18 -12 0
8 9 -14 -19 -18 12 0
8 9 -14 -19 -18 -17 0
8 9 -14 -19 -18 -17 -12 0
8 9 -14 -19 -18 -17 12 0
8 9 -14 -19 -18 17 0
8 9 -14 -19 -18 17 -12 0
8 9 -14 -19 -18 17 12 0
8 9 -14 -19 18 0
8 9 -14 -19 18 -12 0
8 9 -14 -19 18 12 0
8 9 -14 -19 18 -17 0
8 9 -14 -19 18 -17 -12 0
8 9 -14 -19 18 -17 12 0
8 9 -14 -19 18 17 0
8 9 -14 -19 18 17 -12 0
8 9 -14 -19 18 17 12 0
8 9 -14 19 -17 -12 0
8 9 -14 19 -18 -12 0
8 9 -14 19 -18 -17 0
8 9 -14 19 -18 -17 -12 0
8 9 -14 19 -18 -17 12 0
8 9 -14 19 -18 17 -12 0
8 9 -14 19 18 -17 -12 0
8 9 14 -17 -12 0
8 9 14 -18 -17 0
8 9 14 -18 -17 -12 0
8 9 14 -18 -17 12 0
8 9 14 18 -17 -12 0
8 9 14 -19 -17 -12 0
8 9 14 -19 -18 0
8 9 14 -19 -18 -12 0
8 9 14 -19 -18 12 0
8 9 14 -19 -18 -17 0
8 9 14 -19 -18 -17 -12 0
8 9 14 -19 -18 -17 12 0
8 9 14 -19 -18 17 0
8 9 14 -19 -18 17 -12 0
8 9 14 -19 -18 17 12 0
8 9 14 -19 18 -17 -12 0
8 9 14 19 -17 -12 0
8 9 14 19 -18 -17 0
8 9 14 19 -18 -17 -12 0
8 9 14 19 -18 -17 12 0
8 9 14 19 18 -12 0
8 9 14 19 18 -17 -12 0
8 9 14 19 18 17 0
8 9 14 19 18 17 -12 0
8 9 14 19 18 17 12 0
-7 -12 0
-7 -17 -12 0
-7 17 -12 0
-7 -18 -12 0
-7 -18 -17 0
-7 -18 -17 -12 0
-7 -18 -17 12 0
-7 -18 17 -12 0
-7 18 -12 0
-7 18 -17 -12 0
-7 18 17 -12 0
-7 -19 -12 0
-7 -19 -17 0
-7 -19 -17 -12 0
-7 -19 -17 12 0
-7 -19 17 -12 0
-7 -19 -18 0
-7 -19 -18 -12 0
-7 -19 -18 12 0
-7 -19 -18 -17 0
-7 -19 -18 -17 -12 0
-7 -19 -18 -17 12 0
-7 -19 -18 17 0
-7 -19 -18 17 -12 0
-7 -19 -18 17 12 0
-7 -19 18 -12 0
-7 -19 18 -17 0
-7 -19 18 -17 -12 0
-7 -19 18 -17 12 0
-7 -19 18 17 -12 0
-7 19 -12 0
-7 19 -17 -12 0
-7 19 17 -12 0
-7 19 -18 -12 0
-7 19 -18 -17 0
-7 19 -18 -17 -12 0
-7 19 -18 -17 12 0
-7 19 -18 17 -12 0
-7 19 18 -12 0
-7 19 18 -17 -12 0
-7 19 18 17 -12 0
-7 -14 -12 0
-7 -14 -17 0
-7 -14 -17 -12 0
-7 -14 -17 12 0
-7 -14 17 -12 0
-7 -14 -18 0
-7 -14 -18 -12 0
-7 -14 -18 12 0
-7 -14 -18 -17 0
-7 -14 -18 -17 -12 0
-7 -14 -18 -17 12 0
-7 -14 -18 17 0
-7 -14 -18 17 -12 0
-7 -14 -18 17 12 0
-7 -14 18 -12 0
-7 -14 18 -17 0
-7 -14 18 -17 -12 0
-7 -14 18 -17 12 0
-7 -14 18 17 -12 0
-7 -14 -19 0
-7 -14 -19 -12 0
-7 -14 -19 12 0
-7 -14 -19 -17 0
-7 -14 -19 -17 -12 0
-7 -14 -19 -17 12 0
-7 -14 -19 17 0
-7 -14 -19 17 -12 0
-7 -14 -19 17 12 0
-7 -14 -19 -18 0
-7 -14 -19 -18 -12 0
-7 -14 -19 -18 12 0
-7 -14 -19 -18 -17 0
-7 -14 -19 -18 -17 -12 0
-7 -14 -19 -18 -17 12 0
-7 -14 -19 -18 17 0
-7 -14 -19 -18 17 -12 0
-7 -14 -19 -18 17 12 0
-7 -14 -19 18 0
-7 -14 -19 18 -12 0
-7 -14 -19 18 12 0
-7 -14 -19 18 -17 0
-7 -14 -19 18 -17 -12 0
-7 -14 -19 18 -17 12 0
-7 -14 -19 18 17 0
-7 -14 -19 18 17 -12 0
-7 -14 -19 18 17 12 0
-7 -14 19 -12 0
-7 -14 19 -17 0
-7 -14 19 -17 -12 0
-7 -14 19 -17 12 0
-7 -14 19 17 -12 0
-7 -14 19 -18 0
-7 -14 19 -18 -12 0
-7 -14 19 -18 12 0
-7 -14 19 -18 -17 0
-7 -14 19 -18 -17 -12 0
-7 -14 19 -18 -17 12 0
-7 -14 19 -18 17 0
-7 -14 19 -18 17 -12 0
-7 -14 19 -18 17 12 0
-7 -14 19 18 -12 0
-7 -14 19 18 -17 0
-7 -14 19 18 -17 -12 0
-7 -14 19 18 -17 12 0
-7 -14 19 18 17 -12 0
-7 14 -12 0
-7 14 -17 -12 0
-7 14 17 -12 0
-7 14 -18 -12 0
-7 14 -18 -17 0
-7 14 -18 -17 -12 0
-7 14 -18 -17 12 0
-7 14 -18 17 -12 0
-7 14 18 -12 0
-7 14 18 -17 -12 0
-7 14 18 17 -12 0
-7 14 -19 -12 0
-7 14 -19 -17 0
-7 14 -19 -17 -12 0
-7 14 -19 -17 12 0
-7 14 -19 17 -12 0
-7 14 -19 -18 0
-7 14 -19 -18 -12 0
-7 14 -19 -18 12 0
-7 14 -19 -18 -17 0
-7 14 -19 -18 -17 -12 0
-7 14 -19 -18 -17 12 0
-7 14 -19 -18 17 0
-7 14 -19 -18 17 -12 0
-7 14 -19 -18 17 12 0
-7 14 -19 18 -12 0
-7 14 -19 18 -17 0
-7 14 -19 18 -17 -12 0
-7 14 -19 18 -17 12 0
-7 14 -19 18 17 -12 0
-7 14 19 -12 0
-7 14 19 -17 -12 0
-7 14 19 17 -12 0
-7 14 19 -18 -12 0
-7 14 19 -18 -17 0
-7 14 19 -18 -17 -12 0
-7 14 19 -18 -17 12 0
-7 14 19 -18 17 -12 0
-7 14 19 18 -12 0
-7 14 19 18 -17 -12 0
-7 14 19 18 17 -12 0
-7 -9 -12 0
-7 -9 -17 0
-7 -9 -17 -12 0
-7 -9 -17 12 0
-7 -9 17 -12 0
-7 -9 -18 0
-7 -9 -18 -12 0
-7 -9 -18 12 0
-7 -9 -18 -17 0
-7 -9 -18 -17 -12 0
-7 -9 -18 -17 12 0
-7 -9 -18 17 0
-7 -9 -18 17 -12 0
-7 -9 -18 17 12 0
-7 -9 18 -12 0
-7 -9 18 -17 0
-7 -9 18 -17 -12 0
-7 -9 18 -17 12 0
-7 -9 18 17 -12 0
-7 -9 -19 0
-7 -9 -19 -12 0
-7 -9 -19 12 0
-7 -9 -19 -17 0
-7 -9 -19 -17 -12 0
-7 -9 -19 -17 12 0
-7 -9 -19 17 0
-7 -9 -19 17 -12 0
-7 -9 -19 17 12 0
-7 -9 -19 -18 0
-7 -9 -19 -18 -12 0
-7 -9 -19 -18 12 0
-7 -9 -19 -18 -17 0
-7 -9 -19 -18 -17 -12 0
-7 -9 -19 -18 -17 12 0
-7 -9 -19 -18 17 0
-7 -9 -19 -18 17 -12 0
-7 -9 -19 -18 17 12 0
-7 -9 -19 18 0
-7 -9 -19 18 -12 0
-7 -9 -19 18 12 0
-7 -9 -19 18 -17 0
-7 -9 -19 18 -17 -12 0
-7 -9 -19 18 -17 12 0
-7 -9 -19 18 17 0
-7 -9 -19 18 17 -12 0
-7 -9 -19 18 17 12 0
-7 -9 19 -12 0
-7 -9 19 -17 0
-7 -9 19 -17 -12 0
-7 -9 19 -17 12 0
-7 -9 19 17 -12 0
-7 -9 19 -18 0
-7 -9 19 -18 -12 0
-7 -9 19 -18 12 0
-7 -9 19 -18 -17 0
-7 -9 19 -18 -17 -12 0
-7 -9 19 -18 -17 12 0
-7 -9 19 -18 17 0
-7 -9 19 -18 17 -12 0
-7 -9 19 -18 17 12 0
-7 -9 19 18 -12 0
-7 -9 19 18 -17 0
-7 -9 19 18 -17 -12 0
-7 -9 19 18 -17 12 0
-7 -9 19 18 17 -12 0
-7 -9 -14 0
-7 -9 -14 -12 0
-7 -9 -14 12 0
-7 -9 -14 -17 0
-7 -9 -14 -17 -12 0
-7 -9 -14 -17 12 0
-7 -9 -14 17 0
-7 -9 -14 17 -12 0
-7 -9 -14 17 12 0
-7 -9 -14 -18 0
-7 -9 -14 -18 -12 0
-7 -9 -14 -18 12 0
-7 -9 -14 -18 -17 0
-7 -9 -14 -18 -17 -12 0
-7 -9 -14 -18 -17 12 0
-7 -9 -14 -18 17 0
-7 -9 -14 -18 17 -12 0
-7 -9 -14 -18 17 12 0
-7 -9 -14 18 0
-7 -9 -14 18 -12 0
-7 -9 -14 18 12 0
-7 -9 -14 18 -17 0
-7 -9 -14 18 -17 -12 0
-7 -9 -14 18 -17 12 0
-7 -9 -14 18 17 0
-7 -9 -14 18 17 -12 0
-7 -9 -14 18 17 12 0
-7 -9 -14 -19 0
-7 -9 -14 -19 -12 0
-7 -9 -14 -19 12 0
-7 -9 -14 -19 -17 0
-7 -9 -14 -19 -17 -12 0
-7 -9 -14 -19 -17 12 0
-7 -9 -14 -19 17 0
-7 -9 -14 -19 17 -12 0
-7 -9 -14 -19 17 12 0
-7 -9 -14 -19 -18 0
-7 -9 -14 -19 -18 -12 0
-7 -9 -14 -19 -18 12 0
-7 -9 -14 -19 -18 -17 0
-7 -9 -14 -19 -18 -17 -12 0
-7 -9 -14 -19 -18 -17 12 0
-7 -9 -14 -19 -18 17 0
-7 -9 -14 -19 -18 17 -12 0
-7 -9 -14 -19 -18 17 12 0
-7 -9 -14 -19 18 0
-7 -9 -14 -19 18 -12 0
-7 -9 -14 -19 18 12 0
-7 -9 -14 -19 18 -17 0
-7 -9 -14 -19 18 -17 -12 0
-7 -9 -14 -19 18 -17 12 0
-7 -9 -14 -19 18 17 0
-7 -9 -14 -19 18 17 -12 0
-7 -9 -14 -19 18 17 12 0
-7 -9 -14 19 0
-7 -9 -14 19 -12 0
-7 -9 -14 19 12 0
-7 -9 -14 19 -17 0
-7 -9 -14 19 -17 -12 0
-7 -9 -14 19 -17 12 0
-7 -9 -14 19 17 0
-7 -9 -14 19 17 -12 0
-7 -9 -14 19 17 12 0
-7 -9 -14 19 -18 0
-7 -9 -14 19 -18 -12 0
-7 -9 -14 19 -18 12 0
-7 -9 -14 19 -18 -17 0
-7 -9 -14 19 -18 -17 -12 0
-7 -9 -14 19 -18 -17 12 0
-7 -9 -14 19 -18 17 0
-7 -9 -14 19 -18 17 -12 0
-7 -9 -14 19 -18 17 12 0
-7 -9 -14 19 18 0
-7 -9 -14 19 18 -12 0
-7 -9 -14 19 18 12 0
-7 -9 -14 19 18 -17 0
-7 -9 -14 19 18 -17 -12 0
-7 -9 -14 19 18 -17 12 0
-7 -9 -14 19 18 17 0
-7 -9 -14 19 18 17 -12 0
-7 -9 -14 19 18 17 12 0
-7 -9 14 -12 0
-7 -9 14 -17 0
-7 -9 14 -17 -12 0
-7 -9 14 -17 12 0
-7 -9 14 17 -12 0
-7 -9 14 -18 0
-7 -9 14 -18 -12 0
-7 -9 14 -18 12 0
-7 -9 14 -18 -17 0
-7 -9 14 -18 -17 -12 0
-7 -9 14 -18 -17 12 0
-7 -9 14 -18 17 0
-7 -9 14 -18 17 -12 0
-7 -9 14 -18 17 12 0
-7 -9 14 18 -12 0
-7 -9 14 18 -17 0
-7 -9 14 18 -17 -12 0
-7 -9 14 18 -17 12 0
-7 -9 14 18 17 -12 0
-7 -9 14 -19 0
-7 -9 14 -19 -12 0
-7 -9 14 -19 12 0
-7 -9 14 -19 -17 0
-7 -9 14 -19 -17 -12 0
-7 -9 14 -19 -17 12 0
-7 -9 14 -19 17 0
-7 -9 14 -19 17 -12 0
-7 -9 14 -19 17 12 0
-7 -9 14 -19 -18 0
-7 -9 14 -19 -18 -12 0
-7 -9 14 -19 -18 12 0
-7 -9 14 -19 -18 -17 0
-7 -9 14 -19 -18 -17 -12 0
-7 -9 14 -19 -18 -17 12 0
-7 -9 14 -19 -18 17 0
-7 -9 14 -19 -18 17 -12 0
-7 -9 14 -19 -18 17 12 0
-7 -9 14 -19 18 0
-7 -9 14 -19 18 -12 0
-7 -9 14 -19 18 12 0
-7 -9 14 -19 18 -17 0
-7 -9 14 -19 18 -17 -12 0
-7 -9 14 -19 18 -17 12 0
-7 -9 14 -19 18 17 0
-7 -9 14 -19 18 17 -12 0
-7 -9 14 -19 18 17 12 0
-7 -9 14 19 -12 0
-7 -9 14 19 -17 0
-7 -9 14 19 -17 -12 0
-7 -9 14 19 -17 12 0
-7 -9 14 19 17 -12 0
-7 -9 14 19 -18 0
-7 -9 14 19 -18 -12 0
-7 -9 14 19 -18 12 0
-7 -9 14 19 -18 -17 0
-7 -9 14 19 -18 -17 -12 0
-7 -9 14 19 -18 -17 12 0
-7 -9 14 19 -18 17 0
-7 -9 14 19 -18 17 -12 0
-7 -9 14 19 -18 17 12 0
-7 -9 14 19 18 -12 0
-7 -9 14 19 18 -17 0
-7 -9 14 19 18 -17 -12 0
-7 -9 14 19 18 -17 12 0
-7 -9 14 19 18 17 -12 0
-7 9 -12 0
-7 9 -17 -12 0
-7 9 17 -12 0
-7 9 -18 -12 0
-7 9 -18 -17 0
-7 9 -18 -17 -12 0
-7 9 -18 -17 12 0
-7 9 -18 17 -12 0
-7 9 18 -12 0
-7 9 18 -17 -12 0
-7 9 18 17 -12 0
-7 9 -19 -12 0
-7 9 -19 -17 0
-7 9 -19 -17 -12 0
-7 9 -19 -17 12 0
-7 9 -19 17 -12 0
-7 9 -19 -18 0
-7 9 -19 -18 -12 0
-7 9 -19 -18 12 0
-7 9 -19 -18 -17 0
-7 9 -19 -18 -17 -12 0
-7 9 -19 -18 -17 12 0
-7 9 -19 -18 17 0
-7 9 -19 -18 17 -12 0
-7 9 -19 -18 17 12 0
-7 9 -19 18 -12 0
-7 9 -19 18 -17 0
-7 9 -19 18 -17 -12 0
-7 9 -19 18 -17 12 0
-7 9 -19 18 17 -12 0
-7 9 19 -12 0
-7 9 19 -17 -12 0
-7 9 19 17 -12 0
-7 9 19 -18 -12 0
-7 9 19 -18 -17 0
-7 9 19 -18 -17 -12 0
-7 9 19 -18 -17 12 0
-7 9 19 -18 17 -12 0
-7 9 19 18 -12 0
-7 9 19 18 -17 -12 0
-7 9 19 18 17 -12 0
-7 9 -14 -12 0
-7 9 -14 -17 0
-7 9 -14 -17 -12 0
-7 9 -14 -17 12 0
-7 9 -14 17 -12 0
-7 9 -14 -18 0
-7 9 -14 -18 -12 0
-7 9 -14 -18 12 0
-7 9 -14 -18 -17 0
-7 9 -14 -18 -17 -12 0
-7 9 -14 -18 -17 12 0
-7 9 -14 -18 17 0
-7 9 -14 -18 17 -12 0
-7 9 -14 -18 17 12 0
-7 9 -14 18 -12 0
-7 9 -14 18 -17 0
-7 9 -14 18 -17 -12 0
-7 9 -14 18 -17 12 0
-7 9 -14 18 17 -12 0
-7 9 -14 -19 0
-7 9 -14 -19 -12 0
-7 9 -14 -19 12 0
-7 9 -14 -19 -17 0
-7 9 -14 -19 -17 -12 0
-7 9 -14 -19 -17 12 0
-7 9 -14 -19 17 0
-7 9 -14 -19 17 -12 0
-7 9 -14 -19 17 12 0
-7 9 -14 -19 -18 0
-7 9 -14 -19 -18 -12 0
-7 9 -14 -19 -18 12 0
-7 9 -14 -19 -18 -17 0
-7 9 -14 -19 -18 -17 -12 0
-7 9 -14 -19 -18 -17 12 0
-7 9 -14 -19 -18 17 0
-7 9 -14 -19 -18 17 -12 0
-7 9 -14 -19 -18 17 12 0
-7 9 -14 -19 18 0
-7 9 -14 -19 18 -12 0
-7 9 -14 -19 18 12 0
-7 9 -14 -19 18 -17 0
-7 9 -14 -19 18 -17 -12 0
-7 9 -14 -19 18 -17 12 0
-7 9 -14 -19 18 17 0
-7 9 -14 -19 18 17 -12 0
-7 9 -14 -19 18 17 12 0
-7 9 -14 19 -12 0
-7 9 -14 19 -17 0
-7 9 -14 19 -17 -12 0
-7 9 -14 19 -17 12 0
-7 9 -14 19 17 -12 0
-7 9 -14 19 -18 0
-7 9 -14 19 -18 -12 0
-7 9 -14 19 -18 12 0
-7 9 -14 19 -18 -17 0
-7 9 -14 19 -18 -17 -12 0
-7 9 -14 19 -18 -17 12 0
-7 9 -14 19 -18 17 0
-7 9 -14 19 -18 17 -12 0
-7 9 -14 19 -18 17 12 0
-7 9 -14 19 18 -12 0
-7 9 -14 19 18 -17 0
-7 9 -14 19 18 -17 -12 0
-7 9 -14 19 18 -17 12 0
-7 9 -14 19 18 17 -12 0
-7 9 14 -12 0
-7 9 14 -17 -12 0
-7 9 14 17 -12 0
-7 9 14 -18 -12 0
-7 9 14 -18 -17 0
-7 9 14 -18 -17 -12 0
-7 9 14 -18 -17 12 0
-7 9 14 -18 17 -12 0
-7 9 14 18 -12 0
-7 9 14 18 -17 -12 0
-7 9 14 18 17 -12 0
-7 9 14 -19 -12 0
-7 9 14 -19 -17 0
-7 9 14 -19 -17 -12 0
-7 9 14 -19 -17 12 0
-7 9 14 -19 17 -12 0
-7 9 14 -19 -18 0
-7 9 14 -19 -18 -12 0
-7 9 14 -19 -18 12 0
-7 9 14 -19 -18 -17 0
-7 9 14 -19 -18 -17 -12 0
-7 9 14 -19 -18 -17 12 0
-7 9 14 -19 -18 17 0
-7 9 14 -19 -18 17 -12 0
-7 9 14 -19 -18 17 12 0
-7 9 14 -19 18 -12 0
-7 9 14 -19 18 -17 0
-7 9 14 -19 18 -17 -12 0
-7 9 14 -19 18 -17 12 0
-7 9 14 -19 18 17 -12 0
-7 9 14 19 -12 0
-7 9 14 19 -17 -12 0
-7 9 14 19 17 -12 0
-7 9 14 19 -18 -12 0
-7 9 14 19 -18 -17 0
-7 9 14 19 -18 -17 -12 0
-7 9 14 19 -18 -17 12 0
-7 9 14 19 -18 17 -12 0
-7 9 14 19 18 -12 0
-7 9 14 19 18 -17 -12 0
-7 9 14 19 18 17 0
-7 9 14 19 18 17 -12 0
-7 9 14 19 18 17 12 0
-7 -8 0
-7 -8 -12 0
-7 -8 12 0
-7 -8 -17 0
-7 -8 -17 -12 0
-7 -8 -17 12 0
-7 -8 17 0
-7 -8 17 -12 0
-7 -8 17 12 0
-7 -8 -18 0
-7 -8 -18 -12 0
-7 -8 -18 12 0
-7 -8 -18 -17 0
-7 -8 -18 -17 -12 0
-7 -8 -18 -17 12 0
-7 -8 -18 17 0
-7 -8 -18 17 -12 0
-7 -8 -18 17 12 0
-7 -8 18 0
-7 -8 18 -12 0
-7 -8 18 12 0
-7 -8 18 -17 0
-7 -8 18 -17 -12 0
-7 -8 18 -17 12 0
-7 -8 18 17 0
-7 -8 18 17 -12 0
-7 -8 18 17 12 0
-7 -8 -19 0
-7 -8 -19 -12 0
-7 -8 -19 12 0
-7 -8 -19 -17 0
-7 -8 -19 -17 -12 0
-7 -8 -19 -17 12 0
-7 -8 -19 17 0
-7 -8 -19 17 -12 0
-7 -8 -19 17 12 0
-7 -8 -19 -18 0
-7 -8 -19 -18 -12 0
-7 -8 -19 -18 12 0
-7 -8 -19 -18 -17 0
-7 -8 -19 -18 -17 -12 0
-7 -8 -19 -18 -17 12 0
-7 -8 -19 -18 17 0
-7 -8 -19 -18 17 -12 0
-7 -8 -19 -18 17 12 0
-7 -8 -19 18 0
-7 -8 -19 18 -12 0
-7 -8 -19 18 12 0
-7 -8 -19 18 -17 0
-7 -8 -19 18 -17 -12 0
-7 -8 -19 18 -17 12 0
-7 -8 -19 18 17 0
-7 -8 -19 18 17 -12 0
-7 -8 -19 18 17 12 0
-7 -8 19 0
-7 -8 19 -12 0
-7 -8 19 12 0
-7 -8 19 -17 0
-7 -8 19 -17 -12 0
-7 -8 19 -17 12 0
-7 -8 19 17 0
-7 -8 19 17 -12 0
-7 -8 19 17 12 0
-7 -8 19 -18 0
-7 -8 19 -18 -12 0
-7 -8 19 -18 12 0
-7 -8 19 -18 -17 0
-7 -8 19 -18 -17 -12 0
-7 -8 19 -18 -17 12 0
-7 -8 19 -18 17 0
-7 -8 19 -18 17 -12 0
-7 -8 19 -18 17 12 0
-7 -8 19 18 0
-7 -8 19 18 -12 0
-7 -8 19 18 12 0
-7 -8 19 18 -17 0
-7 -8 19 18 -17 -12 0
-7 -8 19 18 -17 12 0
-7 -8 19 18 17 0
-7 -8 19 18 17 -12 0
-7 -8 19 18 17 12 0
-7 -8 -14 0
-7 -8 -14 -12 0
-7 -8 -14 12 0
-7 -8 -14 -17 0
-7 -8 -14 -17 -12 0
-7 -8 -14 -17 12 0
-7 -8 -14 17 0
-7 -8 -14 17 -12 0
-7 -8 -14 17 12 0
-7 -8 -14 -18 0
-7 -8 -14 -18 -12 0
-7 -8 -14 -18 12 0
-7 -8 -14 -18 -17 0
-7 -8 -14 -18 -17 -12 0
-7 -8 -14 -18 -17 12 0
-7 -8 -14 -18 17 0
-7 -8 -14 -18 17 -12 0
-7 -8 -14 -18 17 12 0
-7 -8 -14 18 0
-7 -8 -14 18 -12 0
-7 -8 -14 18 12 0
-7 -8 -14 18 -17 0
-7 -8 -14 18 -17 -12 0
-7 -8 -14 18 -17 12 0
-7 -8 -14 18 17 0
-7 -8 -14 18 17 -12 0
-7 -8 -14 18 17 12 0
-7 -8 -14 -19 0
-7 -8 -14 -19 -12 0
-7 -8 -14 -19 12 0
-7 -8 -14 -19 -17 0
-7 -8 -14 -19 -17 -12 0
-7 -8 -14 -19 -17 12 0
-7 -8 -14 -19 17 0
-7 -8 -14 -19 17 -12 0
-7 -8 -14 -19 17 12 0
-7 -8 -14 -19 -18 0
-7 -8 -14 -19 -18 -12 0
-7 -8 -14 -19 -18 12 0
-7 -8 -14 -19 -18 -17 0
-7 -8 -14 -19 -18 -17 -12 0
-7 -8 -14 -19 -18 -17 12 0
-7 -8 -14 -19 -18 17 0
-7 -8 -14 -19 -18 17 -12 0
-7 -8 -14 -19 -18 17 12 0
-7 -8 -14 -19 18 0
-7 -8 -14 -19 18 -12 0
-7 -8 -14 -19 18 12 0
-7 -8 -14 -19 18 -17 0
-7 -8 -14 -19 18 -17 -12 0
-7 -8 -14 -19 18 -17 12 0
-7 -8 -14 -19 18 17 0
-7 -8 -14 -19 18 17 -12 0
-7 -8 -14 -19 18 17 12 0
-7 -8 -14 19 0
-7 -8 -14 19 -12 0
-7 -8 -14 19 12 0
-7 -8 -14 19 -17 0
-7 -8 -14 19 -17 -12 0
-7 -8 -14 19 -17 12 0
-7 -8 -14 19 17 0
-7 -8 -14 19 17 -12 0
-7 -8 -14 19 17 12 0
-7 -8 -14 19 -18 0
-7 -8 -14 19 -18 -12 0
-7 -8 -14 19 -18 12 0
-7 -8 -14 19 -18 -17 0
-7 -8 -14 19 -18 -17 -12 0
-7 -8 -14 19 -18 -17 12 0
-7 -8 -14 19 -18 17 0
-7 -8 -14 19 -18 17 -12 0
-7 -8 -14 19 -18 17 12 0
-7 -8 -14 19 18 0
-7 -8 -14 19 18 -12 0
-7 -8 -14 19 18 12 0
-7 -8 -14 19 18 -17 0
-7 -8 -14 19 18 -17 -12 0
-7 -8 -14 19 18 -17 12 0
-7 -8 -14 19 18 17 0
-7 -8 -14 19 18 17 -12 0
-7 -8 -14 19 18 17 12 0
-7 -8 14 0
-7 -8 14 -12 0
-7 -8 14 12 0
-7 -8 14 -17 0
-7 -8 14 -17 -12 0
-7 -8 14 -17 12 0
-7 -8 14 17 0
-7 -8 14 17 -12 0
-7 -8 14 17 12 0
-7 -8 14 -18 0
-7 -8 14 -18 -12 0
-7 -8 14 -18 12 0
-7 -8 14 -18 -17 0
-7 -8 14 -18 -17 -12 0
-7 -8 14 -18 -17 12 0
-7 -8 14 -18 17 0
-7 -8 14 -18 17 -12 0
-7 -8 14 -18 17 12 0
-7 -8 14 18 0
-7 -8 14 18 -12 0
-7 -8 14 18 12 0
-7 -8 14 18 -17 0
-7 -8 14 18 -17 -12 0
-7 -8 14 18 -17 12 0
-7 -8 14 18 17 0
-7 -8 14 18 17 -12 0
-7 -8 14 18 17 12 0
-7 -8 14 -19 0
-7 -8 14 -19 -12 0
-7 -8 14 -19 12 0
-7 -8 14 -19 -17 0
-7 -8 14 -19 -17 -12 0
-7 -8 14 -19 -17 12 0
-7 -8 14 -19 17 0
-7 -8 14 -19 17 -12 0
-7 -8 14 -19 17 12 0
-7 -8 14 -19 -18 0
-7 -8 14 -19 -18 -12 0
-7 -8 14 -19 -18 12 0
-7 -8 14 -19 -18 -17 0
-7 -8 14 -19 -18 -17 -12 0
-7 -8 14 -19 -18 -17 12 0
-7 -8 14 -19 -18 17 0
-7 -8 14 -19 -18 17 -12 0
-7 -8 14 -19 -18 17 12 0
-7 -8 14 -19 18 0
-7 -8 14 -19 18 -12 0
-7 -8 14 -19 18 12 0
-7 -8 14 -19 18 -17 0
-7 -8 14 -19 18 -17 -12 0
-7 -8 14 -19 18 -17 12 0
-7 -8 14 -19 18 17 0
-7 -8 14 -19 18 17 -12 0
-7 -8 14 -19 18 17 12 0
-7 -8 14 19 0
-7 -8 14 19 -12 0
-7 -8 14 19 12 0
-7 -8 14 19 -17 0
-7 -8 14 19 -17 -12 0
-7 -8 14 19 -17 12 0
-7 -8 14 19 17 0
-7 -8 14 19 17 -12 0
-7 -8 14 19 17 12 0
-7 -8 14 19 -18 0
-7 -8 14 19 -18 -12 0
-7 -8 14 19 -18 12 0
-7 -8 14 19 -18 -17 0
-7 -8 14 19 -18 -17 -12 0
-7 -8 14 19 -18 -17 12 0
-7 -8 14 19 -18 17 0
-7 -8 14 19 -18 17 -12 0
-7 -8 14 19 -18 17 12 0
-7 -8 14 19 18 0
-7 -8 14 19 18 -12 0
-7 -8 14 19 18 12 0
-7 -8 14 19 18 -17 0
-7 -8 14 19 18 -17 -12 0
-7 -8 14 19 18 -17 12 0
-7 -8 14 19 18 17 0
-7 -8 14 19 18 17 -12 0
-7 -8 14 19 18 17 12 0
-7 -8 -9 0
-7 -8 -9 -12 0
-7 -8 -9 12 0
-7 -8 -9 -17 0
-7 -8 -9 -17 -12 0
-7 -8 -9 -17 12 0
-7 -8 -9 17 0
-7 -8 -9 17 -12 0
-7 -8 -9 17 12 0
-7 -8 -9 -18 0
-7 -8 -9 -18 -12 0
-7 -8 -9 -18 12 0
-7 -8 -9 -18 -17 0
-7 -8 -9 -18 -17 -12 0
-7 -8 -9 -18 -17 12 0
-7 -8 -9 -18 17 0
-7 -8 -9 -18 17 -12 0
-7 -8 -9 -18 17 12 0
-7 -8 -9 18 0
-7 -8 -9 18 -12 0
-7 -8 -9 18 12 0
-7 -8 -9 18 -17 0
-7 -8 -9 18 -17 -12 0
-7 -8 -9 18 -17 12 0
-7 -8 -9 18 17 0
-7 -8 -9 18 17 -12 0
-7 -8 -9 18 17 12 0
-7 -8 -9 -19 0
-7 -8 -9 -19 -12 0
-7 -8 -9 -19 12 0
-7 -8 -9 -19 -17 0
-7 -8 -9 -19 -17 -12 0
-7 -8 -9 -19 -17 12 0
-7 -8 -9 -19 17 0
-7 -8 -9 -19 17 -12 0
-7 -8 -9 -19 17 12 0
-7 -8 -9 -19 -18 0
-7 -8 -9 -19 -18 -12 0
-7 -8 -9 -19 -18 12 0
-7 -8 -9 -19 -18 -17 0
-7 -8 -9 -19 -18 -17 -12 0
-7 -8 -9 -19 -18 -17 12 0
-7 -8 -9 -19 -18 17 0
-7 -8 -9 -19 -18 17 -12 0
-7 -8 -9 -19 -18 17 12 0
-7 -8 -9 -19 18 0
-7 -8 -9 -19 18 -12 0
-7 -8 -9 -19 18 12 0
-7 -8 -9 -19 18 -17 0
-7 -8 -9 -19 18 -17 -12 0
-7 -8 -9 -19 18 -17 12 0
-7 -8 -9 -19 18 17 0
-7 -8 -9 -19 18 17 -12 0
-7 -8 -9 -19 18 17 12 0
-7 -8 -9 19 0
-7 -8 -9 19 -12 0
-7 -8 -9 19 12 0
-7 -8 -9 19 -17 0
-7 -8 -9 19 -17 -12 0
-7 -8 -9 19 -17 12 0
-7 -8 -9 19 17 0
-7 -8 -9 19 17 -12 0
-7 -8 -9 19 17 12 0
-7 -8 -9 19 -18 0
-7 -8 -9 19 -18 -12 0
-7 -8 -9 19 -18 12 0
-7 -8 -9 19 -18 -17 0
-7 -8 -9 19 -18 -17 -12 0
-7 -8 -9 19 -18 -17 12 0
-7 -8 -9 19 -18 17 0
-7 -8 -9 19 -18 17 -12 0
-7 -8 -9 19 -18 17 12 0
-7 -8 -9 19 18 0
-7 -8 -9 19 18 -12 0
-7 -8 -9 19 18 12 0
-7 -8 -9 19 18 -17 0
-7 -8 -9 19 18 -17 -12 0
-7 -8 -9 19 18 -17 12 0
-7 -8 -9 19 18 17 0
-7 -8 -9 19 18 17 -12 0
-7 -8 -9 19 18 17 12 0
-7 -8 -9 -14 0
-7 -8 -9 -14 -12 0
-7 -8 -9 -14 12 0
-7 -8 -9 -14 -17 0
-7 -8 -9 -14 -17 -12 0
-7 -8 -9 -14 -17 12 0
-7 -8 -9 -14 17 0
-7 -8 -9 -14 17 -12 0
-7 -8 -9 -14 17 12 0
-7 -8 -9 -14 -18 0
-7 -8 -9 -14 -18 -12 0
-7 -8 -9 -14 -18 12 0
-7 -8 -9 -14 -18 -17 0
-7 -8 -9 -14 -18 -17 -12 0
-7 -8 -9 -14 -18 -17 12 0
-7 -8 -9 -14 -18 17 0
-7 -8 -9 -14 -18 17 -12 0
-7 -8 -9 -14 -18 17 12 0
-7 -8 -9 -14 18 0
-7 -8 -9 -14 18 -12 0
-7 -8 -9 -14 18 12 0
-7 -8 -9 -14 18 -17 0
-7 -8 -9 -14 18 -17 -12 0
-7 -8 -9 -14 18 -17 12 0
-7 -8 -9 -14 18 17 0
-7 -8 -9 -14 18 17 -12 0
-7 -8 -9 -14 18 17 12 0
-7 -8 -9 -14 -19 0
-7 -8 -9 -14 -19 -12 0
-7 -8 -9 -14 -19 12 0
-7 -8 -9 -14 -19 -17 0
-7 -8 -9 -14 -19 -17 -12 0
-7 -8 -9 -14 -19 -17 12 0
-7 -8 -9 -14 -19 17 0
-7 -8 -9 -14 -19 17 -12 0
-7 -8 -9 -14 -19 17 12 0
-7 -8 -9 -14 -19 -18 0
-7 -8 -9 -14 -19 -18 -12 0
-7 -8 -9 -14 -19 -18 12 0
-7 -8 -9 -14 -19 -18 -17 0
-7 -8 -9 -14 -19 -18 -17 -12 0
-7 -8 -9 -14 -19 -18 -17 12 0
-7 -8 -9 -14 -19 -18 17 0
-7 -8 -9 -14 -19 -18 17 -12 0
-7 -8 -9 -14 -19 -18 17 12 0
-7 -8 -9 -14 -19 18 0
-7 -8 -9 -14 -19 18 -12 0
-7 -8 -9 -14 -19 18 12 0
-7 -8 -9 -14 -19 18 -17 0
-7 -8 -9 -14 -19 18 -17 -12 0
-7 -8 -9 -14 -19 18 -17 12 0
-7 -8 -9 -14 -19 18 17 0
-7 -8 -9 -14 -19 18 17 -12 0
-7 -8 -9 -14 -19 18 17 12 0
-7 -8 -9 -14 19 0
-7 -8 -9 -14 19 -12 0
-7 -8 -9 -14 19 12 0
-7 -8 -9 -14 19 -17 0
-7 -8 -9 -14 19 -17 -12 0
-7 -8 -9 -14 19 -17 12 0
-7 -8 -9 -14 19 17 0
-7 -8 -9 -14 19 17 -12 0
-7 -8 -9 -14 19 17 12 0
-7 -8 -9 -14 19 -18 0
-7 -8 -9 -14 19 -18 -12 0
-7 -8 -9 -14 19 -18 12 0
-7 -8 -9 -14 19 -18 -17 0
-7 -8 -9 -14 19 -18 -17 -12 0
-7 -8 -9 -14 19 -18 -17 12 0
-7 -8 -9 -14 19 -18 17 0
-7 -8 -9 -14 19 -18 17 -12 0
-7 -8 -9 -14 19 -18 17 12 0
-7 -8 -9 -14 19 18 0
-7 -8 -9 -14 19 18 -12 0
-7 -8 -9 -14 19 18 12 0
-7 -8 -9 -14 19 18 -17 0
-7 -8 -9 -14 19 18 -17 -12 0
-7 -8 -9 -14 19 18 -17 12 0
-7 -8 -9 -14 19 18 17 0
-7 -8 -9 -14 19 18 17 -12 0
-7 -8 -9 -14 19 18 17 12 0
-7 -8 -9 14 0
-7 -8 -9 14 -12 0
-7 -8 -9 14 12 0
-7 -8 -9 14 -17 0
-7 -8 -9 14 -17 -12 0
-7 -8 -9 14 -17 12 0
-7 -8 -9 14 17 0
-7 -8 -9 14 17 -12 0
-7 -8 -9 14 17 12 0
-7 -8 -9 14 -18 0
-7 -8 -9 14 -18 -12 0
-7 -8 -9 14 -18 12 0
-7 -8 -9 14 -18 -17 0
-7 -8 -9 14 -18 -17 -12 0
-7 -8 -9 14 -18 -17 12 0
-7 -8 -9 14 -18 17 0
-7 -8 -9 14 -18 17 -12 0
-7 -8 -9 14 -18 17 12 0
-7 -8 -9 14 18 0
-7 -8 -9 14 18 -12 0
-7 -8 -9 14 18 12 0
-7 -8 -9 14 18 -17 0
-7 -8 -9 14 18 -17 -12 0
-7 -8 -9 14 18 -17 12 0
-7 -8 -9 14 18 17 0
-7 -8 -9 14 18 17 -12 0
-7 -8 -9 14 18 17 12 0
-7 -8 -9 14 -19 0
-7 -8 -9 14 -19 -12 0
-7 -8 -9 14 -19 12 0
-7 -8 -9 14 -19 -17 0
-7 -8 -9 14 -19 -17 -12 0
-7 -8 -9 14 -19 -17 12 0
-7 -8 -9 14 -19 17 0
-7 -8 -9 14 -19 17 -12 0
-7 -8 -9 14 -19 17 12 0
-7 -8 -9 14 -19 -18 0
-7 -8 -9 14 -19 -18 -12 0
-7 -8 -9 14 -19 -18 12 0
-7 -8 -9 14 -19 -18 -17 0
-7 -8 -9 14 -19 -18 -17 -12 0
-7 -8 -9 14 -19 -18 -17 12 0
-7 -8 -9 14 -19 -18 17 0
-7 -8 -9 14 -19 -18 17 -12 0
-7 -8 -9 14 -19 -18 17 12 0
-7 -8 -9 14 -19 18 0
-7 -8 -9 14 -19 18 -12 0
-7 -8 -9 14 -19 18 12 0
-7 -8 -9 14 -19 18 -17 0
-7 -8 -9 14 -19 18 -17 -12 0
-7 -8 -9 14 -19 18 -17 12 0
-7 -8 -9 14 -19 18 17 0
-7 -8 -9 14 -19 18 17 -12 0
-7 -8 -9 14 -19 18 17 12 0
-7 -8 -9 14 19 0
-7 -8 -9 14 19 -12 0
-7 -8 -9 14 19 12 0
-7 -8 -9 14 19 -17 0
-7 -8 -9 14 19 -17 -12 0
-7 -8 -9 14 19 -17 12 0
-7 -8 -9 14 19 17 0
-7 -8 -9 14 19 17 -12 0
-7 -8 -9 14 19 17 12 0
-7 -8 -9 14 19 -18 0
-7 -8 -9 14 19 -18 -12 0
-7 -8 -9 14 19 -18 12 0
-7 -8 -9 14 19 -18 -17 0
-7 -8 -9 14 19 -18 -17 -12 0
-7 -8 -9 14 19 -18 -17 12 0
-7 -8 -9 14 19 -18 17 0
-7 -8 -9 14 19 -18 17 -12 0
-7 -8 -9 14 19 -18 17 12 0
-7 -8 -9 14 19 18 0
-7 -8 -9 14 19 18 -12 0
-7 -8 -9 14 19 18 12 0
-7 -8 -9 14 19 18 -17 0
-7 -8 -9 14 19 18 -17 -12 0
-7 -8 -9 14 19 18 -17 12 0
-7 -8 -9 14 19 18 17 0
-7 -8 -9 14 19 18 17 -12 0
-7 -8 -9 14 19 18 17 12 0
-7 -8 9 0
-7 -8 9 -12 0
-7 -8 9 12 0
-7 -8 9 -17 0
-7 -8 9 -17 -12 0
-7 -8 9 -17 12 0
-7 -8 9 17 0
-7 -8 9 17 -12 0
-7 -8 9 17 12 0
-7 -8 9 -18 0
-7 -8 9 -18 -12 0
-7 -8 9 -18 12 0
-7 -8 9 -18 -17 0
-7 -8 9 -18 -17 -12 0
-7 -8 9 -18 -17 12 0
-7 -8 9 -18 17 0
-7 -8 9 -18 17 -12 0
-7 -8 9 -18 17 12 0
-7 -8 9 18 0
-7 -8 9 18 -12 0
-7 -8 9 18 12 0
-7 -8 9 18 -17 0
-7 -8 9 18 -17 -12 0
-7 -8 9 18 -17 12 0
-7 -8 9 18 17 0
-7 -8 9 18 17 -12 0
-7 -8 9 18 17 12 0
-7 -8 9 -19 0
-7 -8 9 -19 -12 0
-7 -8 9 -19 12 0
-7 -8 9 -19 -17 0
-7 -8 9 -19 -17 -12 0
-7 -8 9 -19 -17 12 0
-7 -8 9 -19 17 0
-7 -8 9 -19 17 -12 0
-7 -8 9 -19 17 12 0
-7 -8 9 -19 -18 0
-7 -8 9 -19 -18 -12 0
-7 -8 9 -19 -18 12 0
-7 -8 9 -19 -18 -17 0
-7 -8 9 -19 -18 -17 -12 0
-7 -8 9 -19 -18 -17 12 0
-7 -8 9 -19 -18 17 0
-7 -8 9 -19 -18 17 -12 0
-7 -8 9 -19 -18 17 12 0
-7 -8 9 -19 18 0
-7 -8 9 -19 18 -12 0
-7 -8 9 -19 18 12 0
-7 -8 9 -19 18 -17 0
-7 -8 9 -19 18 -17 -12 0
-7 -8 9 -19 18 -17 12 0
-7 -8 9 -19 18 17 0
-7 -8 9 -19 18 17 -12 0
-7 -8 9 -19 18 17 12 0
-7 -8 9 19 0
-7 -8 9 19 -12 0
-7 -8 9 19 12 0
-7 -8 9 19 -17 0
-7 -8 9 19 -17 -12 0
-7 -8 9 19 -17 12 0
-7 -8 9 19 17 0
-7 -8 9 19 17 -12 0
-7 -8 9 19 17 12 0
-7 -8 9 19 -18 0
-7 -8 9 19 -18 -12 0
-7 -8 9 19 -18 12 0
-7 -8 9 19 -18 -17 0
-7 -8 9 19 -18 -17 -12 0
-7 -8 9 19 -18 -17 12 0
-7 -8 9 19 -18 17 0
-7 -8 9 19 -18 17 -12 0
-7 -8 9 19 -18 17 12 0
-7 -8 9 19 18 0
-7 -8 9 19 18 -12 0
-7 -8 9 19 18 12 0
-7 -8 9 19 18 -17 0
-7 -8 9 19 18 -17 -12 0
-7 -8 9 19 18 -17 12 0
-7 -8 9 19 18 17 0
-7 -8 9 19 18 17 -12 0
-7 -8 9 19 18 17 12 0
-7 -8 9 -14 0
-7 -8 9 -14 -12 0
-7 -8 9 -14 12 0
-7 -8 9 -14 -17 0
-7 -8 9 -14 -17 -12 0
-7 -8 9 -14 -17 12 0
-7 -8 9 -14 17 0
-7 -8 9 -14 17 -12 0
-7 -8 9 -14 17 12 0
-7 -8 9 -14 -18 0
-7 -8 9 -14 -18 -12 0
-7 -8 9 -14 -18 12 0
-7 -8 9 -14 -18 -17 0
-7 -8 9 -14 -18 -17 -12 0
-7 -8 9 -14 -18 -17 12 0
-7 -8 9 -14 -18 17 0
-7 -8 9 -14 -18 17 -12 0
-7 -8 9 -14 -18 17 12 0
-7 -8 9 -14 18 0
-7 -8 9 -14 18 -12 0
-7 -8 9 -14 18 12 0
-7 -8 9 -14 18 -17 0
-7 -8 9 -14 18 -17 -12 0
-7 -8 9 -14 18 -17 12 0
-7 -8 9 -14 18 17 0
-7 -8 9 -14 18 17 -12 0
-7 -8 9 -14 18 17 12 0
-7 -8 9 -14 -19 0
-7 -8 9 -14 -19 -12 0
-7 -8 9 -14 -19 12 0
-7 -8 9 -14 -19 -17 0
-7 -8 9 -14 -19 -17 -12 0
-7 -8 9 -14 -19 -17 12 0
-7 -8 9 -14 -19 17 0
-7 -8 9 -14 -19 17 -12 0
-7 -8 9 -14 -19 17 12 0
-7 -8 9 -14 -19 -18 0
-7 -8 9 -14 -19 -18 -12 0
-7 -8 9 -14 -19 -18 12 0
-7 -8 9 -14 -19 -18 -17 0
-7 -8 9 -14 -19 -18 -17 -12 0
-7 -8 9 -14 -19 -18 -17 12 0
-7 -8 9 -14 -19 -18 17 0
-7 -8 9 -14 -19 -18 17 -12 0
-7 -8 9 -14 -19 -18 17 12 0
-7 -8 9 -14 -19 18 0
-7 -8 9 -14 -19 18 -12 0
-7 -8 9 -14 -19 18 12 0
-7 -8 9 -14 -19 18 -17 0
-7 -8 9 -14 -19 18 -17 -12 0
-7 -8 9 -14 -19 18 -17 12 0
-7 -8 9 -14 -19 18 17 0
-7 -8 9 -14 -19 18 17 -12 0
-7 -8 9 -14 -19 18 17 12 0
-7 -8 9 -14 19 0
-7 -8 9 -14 19 -12 0
-7 -8 9 -14 19 12 0
-7 -8 9 -14 19 -17 0
-7 -8 9 -14 19 -17 -12 0
-7 -8 9 -14 19 -17 12 0
-7 -8 9 -14 19 17 0
-7 -8 9 -14 19 17 -12 0
-7 -8 9 -14 19 17 12 0
-7 -8 9 -14 19 -18 0
-7 -8 9 -14 19 -18 -12 0
-7 -8 9 -14 19 -18 12 0
-7 -8 9 -14 19 -18 -17 0
-7 -8 9 -14 19 -18 -17 -12 0
-7 -8 9 -14 19 -18 -17 12 0
-7 -8 9 -14 19 -18 17 0
-7 -8 9 -14 19 -18 17 -12 0
-7 -8 9 -14 19 -18 17 12 0
-7 -8 9 -14 19 18 0
-7 -8 9 -14 19 18 -12 0
-7 -8 9 -14 19 18 12 0
-7 -8 9 -14 19 18 -17 0
-7 -8 9 -14 19 18 -17 -12 0
-7 -8 9 -14 19 18 -17 12 0
-7 -8 9 -14 19 18 17 0
-7 -8 9 -14 19 18 17 -12 0
-7 -8 9 -14 19 18 17 12 0
-7 -8 9 14 0
-7 -8 9 14 -12 0
-7 -8 9 14 12 0
-7 -8 9 14 -17 0
-7 -8 9 14 -17 -12 0
-7 -8 9 14 -17 12 0
-7 -8 9 14 17 0
-7 -8 9 14 17 -12 0
-7 -8 9 14 17 12 0
-7 -8 9 14 -18 0
-7 -8 9 14 -18 -12 0
-7 -8 9 14 -18 12 0
-7 -8 9 14 -18 -17 0
-7 -8 9 14 -18 -17 -12 0
-7 -8 9 14 -18 -17 12 0
-7 -8 9 14 -18 17 0
-7 -8 9 14 -18 17 -12 0
-7 -8 9 14 -18 17 12 0
-7 -8 9 14 18 0
-7 -8 9 14 18 -12 0
-7 -8 9 14 18 12 0
-7 -8 9 14 18 -17 0
-7 -8 9 14 18 -17 -12 0
-7 -8 9 14 18 -17 12 0
-7 -8 9 14 18 17 0
-7 -8 9 14 18 17 -12 0
-7 -8 9 14 18 17 12 0
-7 -8 9 14 -19 0
-7 -8 9 14 -19 -12 0
-7 -8 9 14 -19 12 0
-7 -8 9 14 -19 -17 0
-7 -8 9 14 -19 -17 -12 0
-7 -8 9 14 -19 -17 12 0
-7 -8 9 14 -19 17 0
-7 -8 9 14 -19 17 -12 0
-7 -8 9 14 -19 17 12 0
-7 -8 9 14 -19 -18 0
-7 -8 9 14 -19 -18 -12 0
-7 -8 9 14 -19 -18 12 0
-7 -8 9 14 -19 -18 -17 0
-7 -8 9 14 -19 -18 -17 -12 0
-7 -8 9 14 -19 -18 -17 12 0
-7 -8 9 14 -19 -18 17 0
-7 -8 9 14 -19 -18 17 -12 0
-7 -8 9 14 -19 -18 17 12 0
-7 -8 9 14 -19 18 0
-7 -8 9 14 -19 18 -12 0
-7 -8 9 14 -19 18 12 0
-7 -8 9 14 -19 18 -17 0
-7 -8 9 14 -19 18 -17 -12 0
-7 -8 9 14 -19 18 -17 12 0
-7 -8 9 14 -19 18 17 0
-7 -8 9 14 -19 18 17 -12 0
-7 -8 9 14 -19 18 17 12 0
-7 -8 9 14 19 0
-7 -8 9 14 19 -12 0
-7 -8 9 14 19 12 0
-7 -8 9 14 19 -17 0
-7 -8 9 14 19 -17 -12 0
-7 -8 9 14 19 -17 12 0
-7 -8 9 14 19 17 0
-7 -8 9 14 19 17 -12 0
-7 -8 9 14 19 17 12 0
-7 -8 9 14 19 -18 0
-7 -8 9 14 19 -18 -12 0
-7 -8 9 14 19 -18 12 0
-7 -8 9 14 19 -18 -17 0
-7 -8 9 14 19 -18 -17 -12 0
-7 -8 9 14 19 -18 -17 12 0
-7 -8 9 14 19 -18 17 0
-7 -8 9 14 19 -18 17 -12 0
-7 -8 9 14 19 -18 17 12 0
-7 -8 9 14 19 18 0
-7 -8 9 14 19 18 -12 0
-7 -8 9 14 19 18 12 0
-7 -8 9 14 19 18 -17 0
-7 -8 9 14 19 18 -17 -12 0
-7 -8 9 14 19 18 -17 12 0
-7 -8 9 14 19 18 17 0
-7 -8 9 14 19 18 17 -12 0
-7 -8 9 14 19 18 17 12 0
-7 8 -12 0
-7 8 -17 -12 0
-7 8 17 -12 0
-7 8 -18 -12 0
-7 8 -18 -17 0
-7 8 -18 -17 -12 0
-7 8 -18 -17 12 0
-7 8 -18 17 -12 0
-7 8 18 -12 0
-7 8 18 -17 -12 0
-7 8 18 17 -12 0
-7 8 -19 -12 0
-7 8 -19 -17 0
-7 8 -19 -17 -12 0
-7 8 -19 -17 12 0
-7 8 -19 17 -12 0
-7 8 -19 -18 0
-7 8 -19 -18 -12 0
-7 8 -19 -18 12 0
-7 8 -19 -18 -17 0
-7 8 -19 -18 -17 -12 0
-7 8 -19 -18 -17 12 0
-7 8 -19 -18 17 0
-7 8 -19 -18 17 -12 0
-7 8 -19 -18 17 12 0
-7 8 -19 18 -12 0
-7 8 -19 18 -17 0
-7 8 -19 18 -17 -12 0
-7 8 -19 18 -17 12 0
-7 8 -19 18 17 -12 0
-7 8 19 -12 0
-7 8 19 -17 -12 0
-7 8 19 17 -12 0
-7 8 19 -18 -12 0
-7 8 19 -18 -17 0
-7 8 19 -18 -17 -12 0
-7 8 19 -18 -17 12 0
-7 8 19 -18 17 -12 0
-7 8 19 18 -12 0
-7 8 19 18 -17 -12 0
-7 8 19 18 17 -12 0
-7 8 -14 -12 0
-7 8 -14 -17 0
-7 8 -14 -17 -12 0
-7 8 -14 -17 12 0
-7 8 -14 17 -12 0
-7 8 -14 -18 0
-7 8 -14 -18 -12 0
-7 8 -14 -18 12 0
-7 8 -14 -18 -17 0
-7 8 -14 -18 -17 -12 0
-7 8 -14 -18 -17 12 0
-7 8 -14 -18 17 0
-7 8 -14 -18 17 -12 0
-7 8 -14 -18 17 12 0
-7 8 -14 18 -12 0
-7 8 -14 18 -17 0
-7 8 -14 18 -17 -12 0
-7 8 -14 18 -17 12 0
-7 8 -14 18 17 -12 0
-7 8 -14 -19 0
-7 8 -14 -19 -12 0
-7 8 -14 -19 12 0
-7 8 -14 -19 -17 0
-7 8 -14 -19 -17 -12 0
-7 8 -14 -19 -17 12 0
-7 8 -14 -19 17 0
-7 8 -14 -19 17 -12 0
-7 8 -14 -19 17 12 0
-7 8 -14 -19 -18 0
-7 8 -14 -19 -18 -12 0
-7 8 -14 -19 -18 12 0
-7 8 -14 -19 -18 -17 0
-7 8 -14 -19 -18 -17 -12 0
-7 8 -14 -19 -18 -17 12 0
-7 8 -14 -19 -18 17 0
-7 8 -14 -19 -18 17 -12 0
-7 8 -14 -19 -18 17 12 0
-7 8 -14 -19 18 0
-7 8 -14 -19 18 -12 0
-7 8 -14 -19 18 12 0
-7 8 -14 -19 18 -17 0
-7 8 -14 -19 18 -17 -12 0
-7 8 -14 -19 18 -17 12 0
-7 8 -14 -19 18 17 0
-7 8 -14 -19 18 17 -12 0
-7 8 -14 -19 18 17 12 0
-7 8 -14 19 -12 0
-7 8 -14 19 -17 0
-7 8 -14 19 -17 -12 0
-7 8 -14 19 -17 12 0
-7 8 -14 19 17 -12 0
-7 8 -14 19 -18 0
-7 8 -14 19 -18 -12 0
-7 8 -14 19 -18 12 0
-7 8 -14 19 -18 -17 0
-7 8 -14 19 -18 -17 -12 0
-7 8 -14 19 -18 -17 12 0
-7 8 -14 19 -18 17 0
-7 8 -14 19 -18 17 -12 0
-7 8 -14 19 -18 17 12 0
-7 8 -14 19 18 -12 0
-7 8 -14 19 18 -17 0
-7 8 -14 19 18 -17 -12 0
-7 8 -14 19 18 -17 12 0
-7 8 -14 19 18 17 -12 0
-7 8 14 -12 0
-7 8 14 -17 -12 0
-7 8 14 17 -12 0
-7 8 14 -18 -12 0
-7 8 14 -18 -17 0
-7 8 14 -18 -17 -12 0
-7 8 14 -18 -17 12 0
-7 8 14 -18 17 -12 0
-7 8 14 18 -12 0
-7 8 14 18 -17 -12 0
-7 8 14 18 17 -12 0
-7 8 14 -19 -12 0
-7 8 14 -19 -17 0
-7 8 14 -19 -17 -12 0
-7 8 14 -19 -17 12 0
-7 8 14 -19 17 -12 0
-7 8 14 -19 -18 0
-7 8 14 -19 -18 -12 0
-7 8 14 -19 -18 12 0
-7 8 14 -19 -18 -17 0
-7 8 14 -19 -18 -17 -12 0
-7 8 14 -19 -18 -17 12 0
-7 8 14 -19 -18 17 0
-7 8 14 -19 -18 17 -12 0
-7 8 14 -19 -18 17 12 0
-7 8 14 -19 18 -12 0
-7 8 14 -19 18 -17 0
-7 8 14 -19 18 -17 -12 0
-7 8 14 -19 18 -17 12 0
-7 8 14 -19 18 17 -12 0
-7 8 14 19 -12 0
-7 8 14 19 -17 -12 0
-7 8 14 19 17 -12 0
-7 8 14 19 -18 -12 0
-7 8 14 19 -18 -17 0
-7 8 14 19 -18 -17 -12 0
-7 8 14 19 -18 -17 12 0
-7 8 14 19 -18 17 -12 0
-7 8 14 19 18 -12 0
-7 8 14 19 18 -17 -12 0
-7 8 14 19 18 17 -12 0
-7 8 -9 -12 0
-7 8 -9 -17 0
-7 8 -9 -17 -12 0
-7 8 -9 -17 12 0
-7 8 -9 17 -12 0
-7 8 -9 -18 0
-7 8 -9 -18 -12 0
-7 8 -9 -18 12 0
-7 8 -9 -18 -17 0
-7 8 -9 -18 -17 -12 0
-7 8 -9 -18 -17 12 0
-7 8 -9 -18 17 0
-7 8 -9 -18 17 -12 0
-7 8 -9 -18 17 12 0
-7 8 -9 18 -12 0
-7 8 -9 18 -17 0
-7 8 -9 18 -17 -12 0
-7 8 -9 18 -17 12 0
-7 8 -9 18 17 -12 0
-7 8 -9 -19 0
-7 8 -9 -19 -12 0
-7 8 -9 -19 12 0
-7 8 -9 -19 -17 0
-7 8 -9 -19 -17 -12 0
-7 8 -9 -19 -17 12 0
-7 8 -9 -19 17 0
-7 8 -9 -19 17 -12 0
-7 8 -9 -19 17 12 0
-7 8 -9 -19 -18 0
-7 8 -9 -19 -18 -12 0
-7 8 -9 -19 -18 12 0
-7 8 -9 -19 -18 -17 0
-7 8 -9 -19 -18 -17 -12 0
-7 8 -9 -19 -18 -17 12 0
-7 8 -9 -19 -18 17 0
-7 8 -9 -19 -18 17 -12 0
-7 8 -9 -19 -18 17 12 0
-7 8 -9 -19 18 0
-7 8 -9 -19 18 -12 0
-7 8 -9 -19 18 12 0
-7 8 -9 -19 18 -17 0
-7 8 -9 -19 18 -17 -12 0
-7 8 -9 -19 18 -17 12 0
-7 8 -9 -19 18 17 0
-7 8 -9 -19 18 17 -12 0
-7 8 -9 -19 18 17 12 0
-7 8 -9 19 -12 0
-7 8 -9 19 -17 0
-7 8 -9 19 -17 -12 0
-7 8 -9 19 -17 12 0
-7 8 -9 19 17 -12 0
-7 8 -9 19 -18 0
-7 8 -9 19 -18 -12 0
-7 8 -9 19 -18 12 0
-7 8 -9 19 -18 -17 0
-7 8 -9 19 -18 -17 -12 0
-7 8 -9 19 -18 -17 12 0
-7 8 -9 19 -18 17 0
-7 8 -9 19 -18 17 -12 0
-7 8 -9 19 -18 17 12 0
-7 8 -9 19 18 -12 0
-7 8 -9 19 18 -17 0
-7 8 -9 19 18 -17 -12 0
-7 8 -9 19 18 -17 12 0
-7 8 -9 19 18 17 -12 0
-7 8 -9 -14 0
-7 8 -9 -14 -12 0
-7 8 -9 -14 12 0
-7 8 -9 -14 -17 0
-7 8 -9 -14 -17 -12 0
-7 8 -9 -14 -17 12 0
-7 8 -9 -14 17 0
-7 8 -9 -14 17 -12 0
-7 8 -9 -14 17 12 0
-7 8 -9 -14 -18 0
-7 8 -9 -14 -18 -12 0
-7 8 -9 -14 -18 12 0
-7 8 -9 -14 -18 -17 0
-7 8 -9 -14 -18 -17 -12 0
-7 8 -9 -14 -18 -17 12 0
-7 8 -9 -14 -18 17 0
-7 8 -9 -14 -18 17 -12 0
-7 8 -9 -14 -18 17 12 0
-7 8 -9 -14 18 0
-7 8 -9 -14 18 -12 0
-7 8 -9 -14 18 12 0
-7 8 -9 -14 18 -17 0
-7 8 -9 -14 18 -17 -12 0
-7 8 -9 -14 18 -17 12 0
-7 8 -9 -14 18 17 0
-7 8 -9 -14 18 17 -12 0
-7 8 -9 -14 18 17 12 0
-7 8 -9 -14 -19 0
-7 8 -9 -14 -19 -12 0
-7 8 -9 -14 -19 12 0
-7 8 -9 -14 -19 -17 0
-7 8 -9 -14 -19 -17 -12 0
-7 8 -9 -14 -19 -17 12 0
-7 8 -9 -14 -19 17 0
-7 8 -9 -14 -19 17 -12 0
-7 8 -9 -14 -19 17 12 0
-7 8 -9 -14 -19 -18 0
-7 8 -9 -14 -19 -18 -12 0
-7 8 -9 -14 -19 -18 12 0
-7 8 -9 -14 -19 -18 -17 0
-7 8 -9 -14 -19 -18 -17 -12 0
-7 8 -9 -14 -19 -18 -17 12 0
-7 8 -9 -14 -19 -18 17 0
-7 8 -9 -14 -19 -18 17 -12 0
-7 8 -9 -14 -19 -18 17 12 0
-7 8 -9 -14 -19 18 0
-7 8 -9 -14 -19 18 -12 0
-7 8 -9 -14 -19 18 12 0
-7 8 -9 -14 -19 18 -17 0
-7 8 -9 -14 -19 18 -17 -12 0
-7 8 -9 -14 -19 18 -17 12 0
-7 8 -9 -14 -19 18 17 0
-7 8 -9 -14 -19 18 17 -12 0
-7 8 -9 -14 -19 18 17 12 0
-7 8 -9 -14 19 0
-7 8 -9 -14 19 -12 0
-7 8 -9 -14 19 12 0
-7 8 -9 -14 19 -17 0
-7 8 -9 -14 19 -17 -12 0
-7 8 -9 -14 19 -17 12 0
-7 8 -9 -14 19 17 0
-7 8 -9 -14 19 17 -12 0
-7 8 -9 -14 19 17 12 0
-7 8 -9 -14 19 -18 0
-7 8 -9 -14 19 -18 -12 0
-7 8 -9 -14 19 -18 12 0
-7 8 -9 -14 19 -18 -17 0
-7 8 -9 -14 19 -18 -17 -12 0
-7 8 -9 -14 19 -18 -17 12 0
-7 8 -9 -14 19 -18 17 0
-7 8 -9 -14 19 -18 17 -12 0
-7 8 -9 -14 19 -18 17 12 0
-7 8 -9 -14 19 18 0
-7 8 -9 -14 19 18 -12 0
-7 8 -9 -14 19 18 12 0
-7 8 -9 -14 19 18 -17 0
-7 8 -9 -14 19 18 -17 -12 0
-7 8 -9 -14 19 18 -17 12 0
-7 8 -9 -14 19 18 17 0
-7 8 -9 -14 19 18 17 -12 0
-7 8 -9 -14 19 18 17 12 0
-7 8 -9 14 -12 0
-7 8 -9 14 -17 0
-7 8 -9 14 -17 -12 0
-7 8 -9 14 -17 12 0
-7 8 -9 14 17 -12 0
-7 8 -9 14 -18 0
-7 8 -9 14 -18 -12 0
-7 8 -9 14 -18 12 0
-7 8 -9 14 -18 -17 0
-7 8 -9 14 -18 -17 -12 0
-7 8 -9 14 -18 -17 12 0
-7 8 -9 14 -18 17 0
-7 8 -9 14 -18 17 -12 0
-7 8 -9 14 -18 17 12 0
-7 8 -9 14 18 -12 0
-7 8 -9 14 18 -17 0
-7 8 -9 14 18 -17 -12 0
-7 8 -9 14 18 -17 12 0
-7 8 -9 14 18 17 -12 0
-7 8 -9 14 -19 0
-7 8 -9 14 -19 -12 0
-7 8 -9 14 -19 12 0
-7 8 -9 14 -19 -17 0
-7 8 -9 14 -19 -17 -12 0
-7 8 -9 14 -19 -17 12 0
-7 8 -9 14 -19 17 0
-7 8 -9 14 -19 17 -12 0
-7 8 -9 14 -19 17 12 0
-7 8 -9 14 -19 -18 0
-7 8 -9 14 -19 -18 -12 0
-7 8 -9 14 -19 -18 12 0
-7 8 -9 14 -19 -18 -17 0
-7 8 -9 14 -19 -18 -17 -12 0
-7 8 -9 14 -19 -18 -17 12 0
-7 8 -9 14 -19 -18 17 0
-7 8 -9 14 -19 -18 17 -12 0
-7 8 -9 14 -19 -18 17 12 0
-7 8 -9 14 -19 18 0
-7 8 -9 14 -19 18 -12 0
-7 8 -9 14 -19 18 12 0
-7 8 -9 14 -19 18 -17 0
-7 8 -9 14 -19 18 -17 -12 0
-7 8 -9 14 -19 18 -17 12 0
-7 8 -9 14 -19 18 17 0
-7 8 -9 14 -19 18 17 -12 0
-7 8 -9 14 -19 18 17 12 0
-7 8 -9 14 19 -12 0
-7 8 -9 14 19 -17 0
-7 8 -9 14 19 -17 -12 0
-7 8 -9 14 19 -17 12 0
-7 8 -9 14 19 17 -12 0
-7 8 -9 14 19 -18 0
-7 8 -9 14 19 -18 -12 0
-7 8 -9 14 19 -18 12 0
-7 8 -9 14 19 -18 -17 0
-7 8 -9 14 19 -18 -17 -12 0
-7 8 -9 14 19 -18 -17 12 0
-7 8 -9 14 19 -18 17 0
-7 8 -9 14 19 -18 17 -12 0
-7 8 -9 14 19 -18 17 12 0
-7 8 -9 14 19 18 -12 0
-7 8 -9 14 19 18 -17 0
-7 8 -9 14 19 18 -17 -12 0
-7 8 -9 14 19 18 -17 12 0
-7 8 -9 14 19 18 17 -12 0
-7 8 9 -12 0
-7 8 9 -17 -12 0
-7 8 9 17 -12 0
-7 8 9 -18 -12 0
-7 8 9 -18 -17 0
-7 8 9 -18 -17 -12 0
-7 8 9 -18 -17 12 0
-7 8 9 -18 17 -12 0
-7 8 9 18 -12 0
-7 8 9 18 -17 -12 0
-7 8 9 18 17 -12 0
-7 8 9 -19 -12 0
-7 8 9 -19 -17 0
-7 8 9 -19 -17 -12 0
-7 8 9 -19 -17 12 0
-7 8 9 -19 17 -12 0
-7 8 9 -19 -18 0
-7 8 9 -19 -18 -12 0
-7 8 9 -19 -18 12 0
-7 8 9 -19 -18 -17 0
-7 8 9 -19 -18 -17 -12 0
-7 8 9 -19 -18 -17 12 0
-7 8 9 -19 -18 17 0
-7 8 9 -19 -18 17 -12 0
-7 8 9 -19 -18 17 12 0
-7 8 9 -19 18 -12 0
-7 8 9 -19 18 -17 0
-7 8 9 -19 18 -17 -12 0
-7 8 9 -19 18 -17 12 0
-7 8 9 -19 18 17 -12 0
-7 8 9 19 -12 0
-7 8 9 19 -17 -12 0
-7 8 9 19 17 -12 0
-7 8 9 19 -18 -12 0
-7 8 9 19 -18 -17 0
-7 8 9 19 -18 -17 -12 0
-7 8 9 19 -18 -17 12 0
-7 8 9 19 -18 17 -12 0
-7 8 9 19 18 -12 0
-7 8 9 19 18 -17 -12 0
-7 8 9 19 18 17 -12 0
-7 8 9 -14 -12 0
-7 8 9 -14 -17 0
-7 8 9 -14 -17 -12 0
-7 8 9 -14 -17 12 0
-7 8 9 -14 17 -12 0
-7 8 9 -14 -18 0
-7 8 9 -14 -18 -12 0
-7 8 9 -14 -18 12 0
-7 8 9 -14 -18 -17 0
-7 8 9 -14 -18 -17 -12 0
-7 8 9 -14 -18 -17 12 0
-7 8 9 -14 -18 17 0
-7 8 9 -14 -18 17 -12 0
-7 8 9 -14 -18 17 12 0
-7 8 9 -14 18 -12 0
-7 8 9 -14 18 -17 0
-7 8 9 -14 18 -17 -12 0
-7 8 9 -14 18 -17 12 0
-7 8 9 -14 18 17 -12 0
-7 8 9 -14 -19 0
-7 8 9 -14 -19 -12 0
-7 8 9 -14 -19 12 0
-7 8 9 -14 -19 -17 0
-7 8 9 -14 -19 -17 -12 0
-7 8 9 -14 -19 -17 12 0
-7 8 9 -14 -19 17 0
-7 8 9 -14 -19 17 -12 0
-7 8 9 -14 -19 17 12 0
-7 8 9 -14 -19 -18 0
-7 8 9 -14 -19 -18 -12 0
-7 8 9 -14 -19 -18 12 0
-7 8 9 -14 -19 -18 -17 0
-7 8 9 -14 -19 -18 -17 -12 0
-7 8 9 -14 -19 -18 -17 12 0
-7 8 9 -14 -19 -18 17 0
-7 8 9 -14 -19 -18 17 -12 0
-7 8 9 -14 -19 -18 17 12 0
-7 8 9 -14 -19 18 0
-7 8 9 -14 -19 18 -12 0
-7 8 9 -14 -19 18 12 0
-7 8 9 -14 -19 18 -17 0
-7 8 9 -14 -19 18 -17 -12 0
-7 8 9 -14 -19 18 -17 12 0
-7 8 9 -14 -19 18 17 0
-7 8 9 -14 -19 18 17 -12 0
-7 8 9 -14 -19 18 17 12 0
-7 8 9 -14 19 -12 0
-7 8 9 -14 19 -17 0
-7 8 9 -14 19 -17 -12 0
-7 8 9 -14 19 -17 12 0
-7 8 9 -14 19 17 -12 0
-7 8 9 -14 19 -18 0
-7 8 9 -14 19 -18 -12 0
-7 8 9 -14 19 -18 12 0
-7 8 9 -14 19 -18 -17 0
-7 8 9 -14 19 -18 -17 -12 0
-7 8 9 -14 19 -18 -17 12 0
-7 8 9 -14 19 -18 17 0
-7 8 9 -14 19 -18 17 -12 0
-7 8 9 -14 19 -18 17 12 0
-7 8 9 -14 19 18 -12 0
-7 8 9 -14 19 18 -17 0
-7 8 9 -14 19 18 -17 -12 0
-7 8 9 -14 19 18 -17 12 0
-7 8 9 -14 19 18 17 -12 0
-7 8 9 14 -12 0
-7 8 9 14 -17 -12 0
-7 8 9 14 17 -12 0
-7 8 9 14 -18 -12 0
-7 8 9 14 -18 -17 0
-7 8 9 14 -18 -17 -12 0
-7 8 9 14 -18 -17 12 0
-7 8 9 14 -18 17 -12 0
-7 8 9 14 18 -12 0
-7 8 9 14 18 -17 -12 0
-7 8 9 14 18 17 -12 0
-7 8 9 14 -19 -12 0
-7 8 9 14 -19 -17 0
-7 8 9 14 -19 -17 -12 0
-7 8 9 14 -19 -17 12 0
-7 8 9 14 -19 17 -12 0
-7 8 9 14 -19 -18 0
-7 8 9 14 -19 -18 -12 0
-7 8 9 14 -19 -18 12 0
-7 8 9 14 -19 -18 -17 0
-7 8 9 14 -19 -18 -17 -12 0
-7 8 9 14 -19 -18 -17 12 0
-7 8 9 14 -19 -18 17 0
-7 8 9 14 -19 -18 17 -12 0
-7 8 9 14 -19 -18 17 12 0
-7 8 9 14 -19 18 -12 0
-7 8 9 14 -19 18 -17 0
-7 8 9 14 -19 18 -17 -12 0
-7 8 9 14 -19 18 -17 12 0
-7 8 9 14 -19 18 17 -12 0
-7 8 9 14 19 -12 0
-7 8 9 14 19 -17 -12 0
-7 8 9 14 19 17 -12 0
-7 8 9 14 19 -18 -12 0
-7 8 9 14 19 -18 -17 0
-7 8 9 14 19 -18 -17 -12 0
-7 8 9 14 19 -18 -17 12 0
-7 8 9 14 19 -18 17 -12 0
-7 8 9 14 19 18 -12 0
-7 8 9 14 19 18 -17 -12 0
-7 8 9 14 19 18 17 0
-7 8 9 14 19 18 17 -12 0
-7 8 9 14 19 18 17 12 0
7 -17 -12 0
7 -18 -17 0
7 -18 -17 -12 0
7 -18 -17 12 0
7 18 -17 -12 0
7 -19 -17 -12 0
7 -19 -18 0
7 -19 -18 -12 0
7 -19 -18 12 0
7 -19 -18 -17 0
7 -19 -18 -17 -12 0
7 -19 -18 -17 12 0
7 -19 -18 17 0
7 -19 -18 17 -12 0
7 -19 -18 17 12 0
7 -19 18 -17 -12 0
7 19 -17 -12 0
7 19 -18 -17 0
7 19 -18 -17 -12 0
7 19 -18 -17 12 0
7 19 18 -17 -12 0
7 -14 -17 -12 0
7 -14 -18 -12 0
7 -14 -18 -17 0
7 -14 -18 -17 -12 0
7 -14 -18 -17 12 0
7 -14 -18 17 -12 0
7 -14 18 -17 -12 0
7 -14 -19 0
7 -14 -19 -12 0
7 -14 -19 12 0
7 -14 -19 -17 0
7 -14 -19 -17 -12 0
7 -14 -19 -17 12 0
7 -14 -19 17 0
7 -14 -19 17 -12 0
7 -14 -19 17 12 0
7 -14 -19 -18 0
7 -14 -19 -18 -12 0
7 -14 -19 -18 12 0
7 -14 -19 -18 -17 0
7 -14 -19 -18 -17 -12 0
7 -14 -19 -18 -17 12 0
7 -14 -19 -18 17 0
7 -14 -19 -18 17 -12 0
7 -14 -19 -18 17 12 0
7 -14 -19 18 0
7 -14 -19 18 -12 0
7 -14 -19 18 12 0
7 -14 -19 18 -17 0
7 -14 -19 18 -17 -12 0
7 -14 -19 18 -17 12 0
7 -14 -19 18 17 0
7 -14 -19 18 17 -12 0
7 -14 -19 18 17 12 0
7 -14 19 -17 -12 0
7 -14 19 -18 -12 0
7 -14 19 -18 -17 0
7 -14 19 -18 -17 -12 0
7 -14 19 -18 -17 12 0
7 -14 19 -18 17 -12 0
7 -14 19 18 -17 -12 0
7 14 -17 -12 0
7 14 -18 -17 0
7 14 -18 -17 -12 0
7 14 -18 -17 12 0
7 14 18 -17 -12 0
7 14 -19 -17 -12 0
7 14 -19 -18 0
7 14 -19 -18 -12 0
7 14 -19 -18 12 0
7 14 -19 -18 -17 0
7 14 -19 -18 -17 -12 0
7 14 -19 -18 -17 12 0
7 14 -19 -18 17 0
7 14 -19 -18 17 -12 0
7 14 -19 -18 17 12 0
7 14 -19 18 -17 -12 0
7 14 19 -17 -12 0
7 14 19 -18 -17 0
7 14 19 -18 -17 -12 0
7 14 19 -18 -17 12 0
7 14 19 18 -17 -12 0
7 14 19 18 17 12 0
7 -9 -17 -12 0
7 -9 -18 -12 0
7 -9 -18 -17 0
7 -9 -18 -17 -12 0
7 -9 -18 -17 12 0
7 -9 -18 17 -12 0
7 -9 18 -17 -12 0
7 -9 -19 -12 0
7 -9 -19 -17 0
7 -9 -19 -17 -12 0
7 -9 -19 -17 12 0
7 -9 -19 17 -12 0
7 -9 -19 -18 0
7 -9 -19 -18 -12 0
7 -9 -19 -18 12 0
7 -9 -19 -18 -17 0
7 -9 -19 -18 -17 -12 0
7 -9 -19 -18 -17 12 0
7 -9 -19 -18 17 0
7 -9 -19 -18 17 -12 0
7 -9 -19 -18 17 12 0
7 -9 -19 18 -12 0
7 -9 -19 18 -17 0
7 -9 -19 18 -17 -12 0
7 -9 -19 18 -17 12 0
7 -9 -19 18 17 -12 0
7 -9 19 -17 -12 0
7 -9 19 -18 -12 0
7 -9 19 -18 -17 0
7 -9 19 -18 -17 -12 0
7 -9 19 -18 -17 12 0
7 -9 19 -18 17 -12 0
7 -9 19 18 -17 -12 0
7 -9 19 18 17 12 0
7 -9 -14 0
7 -9 -14 -12 0
7 -9 -14 12 0
7 -9 -14 -17 0
7 -9 -14 -17 -12 0
7 -9 -14 -17 12 0
7 -9 -14 17 0
7 -9 -14 17 -12 0
7 -9 -14 17 12 0
7 -9 -14 -18 0
7 -9 -14 -18 -12 0
7 -9 -14 -18 12 0
7 -9 -14 -18 -17 0
7 -9 -14 -18 -17 -12 0
7 -9 -14 -18 -17 12 0
7 -9 -14 -18 17 0
7 -9 -14 -18 17 -12 0
7 -9 -14 -18 17 12 0
7 -9 -14 18 0
7 -9 -14 18 -12 0
7 -9 -14 18 12 0
7 -9 -14 18 -17 0
7 -9 -14 18 -17 -12 0
7 -9 -14 18 -17 12 0
7 -9 -14 18 17 0
7 -9 -14 18 17 -12 0
7 -9 -14 18 17 12 0
7 -9 -14 -19 0
7 -9 -14 -19 -12 0
7 -9 -14 -19 12 0
7 -9 -14 -19 -17 0
7 -9 -14 -19 -17 -12 0
7 -9 -14 -19 -17 12 0
7 -9 -14 -19 17 0
7 -9 -14 -19 17 -12 0
7 -9 -14 -19 17 12 0
7 -9 -14 -19 -18 0
7 -9 -14 -19 -18 -12 0
7 -9 -14 -19 -18 12 0
7 -9 -14 -19 -18 -17 0
7 -9 -14 -19 -18 -17 -12 0
7 -9 -14 -19 -18 -17 12 0
7 -9 -14 -19 -18 17 0
7 -9 -14 -19 -18 17 -12 0
7 -9 -14 -19 -18 17 12 0
7 -9 -14 -19 18 0
7 -9 -14 -19 18 -12 0
7 -9 -14 -19 18 12 0
7 -9 -14 -19 18 -17 0
7 -9 -14 -19 18 -17 -12 0
7 -9 -14 -19 18 -17 12 0
7 -9 -14 -19 18 17 0
7 -9 -14 -19 18 17 -12 0
7 -9 -14 -19 18 17 12 0
7 -9 -14 19 0
7 -9 -14 19 -12 0
7 -9 -14 19 12 0
7 -9 -14 19 -17 0
7 -9 -14 19 -17 -12 0
7 -9 -14 19 -17 12 0
7 -9 -14 19 17 0
7 -9 -14 19 17 -12 0
7 -9 -14 19 17 12 0
7 -9 -14 19 -18 0
7 -9 -14 19 -18 -12 0
7 -9 -14 19 -18 12 0
7 -9 -14 19 -18 -17 0
7 -9 -14 19 -18 -17 -12 0
7 -9 -14 19 -18 -17 12 0
7 -9 -14 19 -18 17 0
7 -9 -14 19 -18 17 -12 0
7 -9 -14 19 -18 17 12 0
7 -9 -14 19 18 0
7 -9 -14 19 18 -12 0
7 -9 -14 19 18 12 0
7 -9 -14 19 18 -17 0
7 -9 -14 19 18 -17 -12 0
7 -9 -14 19 18 -17 12 0
7 -9 -14 19 18 17 0
7 -9 -14 19 18 17 -12 0
7 -9 -14 19 18 17 12 0
7 -9 14 -17 -12 0
7 -9 14 -18 -12 0
7 -9 14 -18 -17 0
7 -9 14 -18 -17 -12 0
7 -9 14 -18 -17 12 0
7 -9 14 -18 17 -12 0
7 -9 14 18 -17 -12 0
7 -9 14 -19 -12 0
7 -9 14 -19 -17 0
7 -9 14 -19 -17 -12 0
7 -9 14 -19 -17 12 0
7 -9 14 -19 17 -12 0
7 -9 14 -19 -18 0
7 -9 14 -19 -18 -12 0
7 -9 14 -19 -18 12 0
7 -9 14 -19 -18 -17 0
7 -9 14 -19 -18 -17 -12 0
7 -9 14 -19 -18 -17 12 0
7 -9 14 -19 -18 17 0
7 -9 14 -19 -18 17 -12 0
7 -9 14 -19 -18 17 12 0
7 -9 14 -19 18 -12 0
7 -9 14 -19 18 -17 0
7 -9 14 -19 18 -17 -12 0
7 -9 14 -19 18 -17 12 0
7 -9 14 -19 18 17 -12 0
7 -9 14 19 -17 -12 0
7 -9 14 19 -18 -12 0
7 -9 14 19 -18 -17 0
7 -9 14 19 -18 -17 -12 0
7 -9 14 19 -18 -17 12 0
7 -9 14 19 -18 17 -12 0
7 -9 14 19 18 -17 -12 0
7 -9 14 19 18 17 12 0
7 9 -17 -12 0
7 9 -18 -17 0
7 9 -18 -17 -12 0
7 9 -18 -17 12 0
7 9 18 -17 -12 0
7 9 -19 -17 -12 0
7 9 -19 -18 0
7 9 -19 -18 -12 0
7 9 -19 -18 12 0
7 9 -19 -18 -17 0
7 9 -19 -18 -17 -12 0
7 9 -19 -18 -17 12 0
7 9 -19 -18 17 0
7 9 -19 -18 17 -12 0
7 9 -19 -18 17 12 0
7 9 -19 18 -17 -12 0
7 9 19 -17 -12 0
7 9 19 -18 -17 0
7 9 19 -18 -17 -12 0
7 9 19 -18 -17 12 0
7 9 19 18 -17 -12 0
7 9 -14 -17 -12 0
7 9 -14 -18 -12 0
7 9 -14 -18 -17 0
7 9 -14 -18 -17 -12 0
7 9 -14 -18 -17 12 0
7 9 -14 -18 17 -12 0
7 9 -14 18 -17 -12 0
7 9 -14 -19 0
7 9 -14 -19 -12 0
7 9 -14 -19 12 0
7 9 -14 -19 -17 0
7 9 -14 -19 -17 -12 0
7 9 -14 -19 -17 12 0
7 9 -14 -19 17 0
7 9 -14 -19 17 -12 0
7 9 -14 -19 17 12 0
7 9 -14 -19 -18 0
7 9 -14 -19 -18 -12 0
7 9 -14 -19 -18 12 0
7 9 -14 -19 -18 -17 0
7 9 -14 -19 -18 -17 -12 0
7 9 -14 -19 -18 -17 12 0
7 9 -14 -19 -18 17 0
7 9 -14 -19 -18 17 -12 0
7 9 -14 -19 -18 17 12 0
7 9 -14 -19 18 0
7 9 -14 -19 18 -12 0
7 9 -14 -19 18 12 0
7 9 -14 -19 18 -17 0
7 9 -14 -19 18 -17 -12 0
7 9 -14 -19 18 -17 12 0
7 9 -14 -19 18 17 0
7 9 -14 -19 18 17 -12 0
7 9 -14 -19 18 17 12 0
7 9 -14 19 -17 -12 0
7 9 -14 19 -18 -12 0
7 9 -14 19 -18 -17 0
7 9 -14 19 -18 -17 -12 0
7 9 -14 19 -18 -17 12 0
7 9 -14 19 -18 17 -12 0
7 9 -14 19 18 -17 -12 0
7 9 14 -17 -12 0
7 9 14 -18 -17 0
7 9 14 -18 -17 -12 0
7 9 14 -18 -17 12 0
7 9 14 18 -17 -12 0
7 9 14 -19 -17 -12 0
7 9 14 -19 -18 0
7 9 14 -19 -18 -12 0
7 9 14 -19 -18 12 0
7 9 14 -19 -18 -17 0
7 9 14 -19 -18 -17 -12 0
7 9 14 -19 -18 -17 12 0
7 9 14 -19 -18 17 0
7 9 14 -19 -18 17 -12 0
7 9 14 -19 -18 17 12 0
7 9 14 -19 18 -17 -12 0
7 9 14 19 -17 -12 0
7 9 14 19 -18 -17 0
7 9 14 19 -18 -17 -12 0
7 9 14 19 -18 -17 12 0
7 9 14 19 18 -17 -12 0
7 9 14 19 18 17 12 0
7 -8 -17 -12 0
7 -8 -18 -12 0
7 -8 -18 -17 0
7 -8 -18 -17 -12 0
7 -8 -18 -17 12 0
7 -8 -18 17 -12 0
7 -8 18 -17 -12 0
7 -8 -19 -12 0
7 -8 -19 -17 0
7 -8 -19 -17 -12 0
7 -8 -19 -17 12 0
7 -8 -19 17 -12 0
7 -8 -19 -18 0
7 -8 -19 -18 -12 0
7 -8 -19 -18 12 0
7 -8 -19 -18 -17 0
7 -8 -19 -18 -17 -12 0
7 -8 -19 -18 -17 12 0
7 -8 -19 -18 17 0
7 -8 -19 -18 17 -12 0
7 -8 -19 -18 17 12 0
7 -8 -19 18 -12 0
7 -8 -19 18 -17 0
7 -8 -19 18 -17 -12 0
7 -8 -19 18 -17 12 0
7 -8 -19 18 17 -12 0
7 -8 19 -17 -12 0
7 -8 19 -18 -12 0
7 -8 19 -18 -17 0
7 -8 19 -18 -17 -12 0
7 -8 19 -18 -17 12 0
7 -8 19 -18 17 -12 0
7 -8 19 18 -17 -12 0
7 -8 -14 -12 0
7 -8 -14 -17 0
7 -8 -14 -17 -12 0
7 -8 -14 -17 12 0
7 -8 -14 17 -12 0
7 -8 -14 -18 0
7 -8 -14 -18 -12 0
7 -8 -14 -18 12 0
7 -8 -14 -18 -17 0
7 -8 -14 -18 -17 -12 0
7 -8 -14 -18 -17 12 0
7 -8 -14 -18 17 0
7 -8 -14 -18 17 -12 0
7 -8 -14 -18 17 12 0
7 -8 -14 18 -12 0
7 -8 -14 18 -17 0
7 -8 -14 18 -17 -12 0
7 -8 -14 18 -17 12 0
7 -8 -14 18 17 -12 0
7 -8 -14 -19 0
7 -8 -14 -19 -12 0
7 -8 -14 -19 12 0
7 -8 -14 -19 -17 0
7 -8 -14 -19 -17 -12 0
7 -8 -14 -19 -17 12 0
7 -8 -14 -19 17 0
7 -8 -14 -19 17 -12 0
7 -8 -14 -19 17 12 0
7 -8 -14 -19 -18 0
7 -8 -14 -19 -18 -12 0
7 -8 -14 -19 -18 12 0
7 -8 -14 -19 -18 -17 0
7 -8 -14 -19 -18 -17 -12 0
7 -8 -14 -19 -18 -17 12 0
7 -8 -14 -19 -18 17 0
7 -8 -14 -19 -18 17 -12 0
7 -8 -14 -19 -18 17 12 0
7 -8 -14 -19 18 0
7 -8 -14 -19 18 -12 0
7 -8 -14 -19 18 12 0
7 -8 -14 -19 18 -17 0
7 -8 -14 -19 18 -17 -12 0
7 -8 -14 -19 18 -17 12 0
7 -8 -14 -19 18 17 0
7 -8 -14 -19 18 17 -12 0
7 -8 -14 -19 18 17 12 0
7 -8 -14 19 -12 0
7 -8 -14 19 -17 0
7 -8 -14 19 -17 -12 0
7 -8 -14 19 -17 12 0
7 -8 -14 19 17 -12 0
7 -8 -14 19 -18 0
7 -8 -14 19 -18 -12 0
7 -8 -14 19 -18 12 0
7 -8 -14 19 -18 -17 0
7 -8 -14 19 -18 -17 -12 0
7 -8 -14 19 -18 -17 12 0
7 -8 -14 19 -18 17 0
7 -8 -14 19 -18 17 -12 0
7 -8 -14 19 -18 17 12 0
7 -8 -14 19 18 -12 0
7 -8 -14 19 18 -17 0
7 -8 -14 19 18 -17 -12 0
7 -8 -14 19 18 -17 12 0
7 -8 -14 19 18 17 -12 0
7 -8 14 -17 -12 0
7 -8 14 -18 -12 0
7 -8 14 -18 -17 0
7 -8 14 -18 -17 -12 0
7 -8 14 -18 -17 12 0
7 -8 14 -18 17 -12 0
7 -8 14 18 -17 -12 0
7 -8 14 -19 -12 0
7 -8 14 -19 -17 0
7 -8 14 -19 -17 -12 0
7 -8 14 -19 -17 12 0
7 -8 14 -19 17 -12 0
7 -8 14 -19 -18 0
7 -8 14 -19 -18 -12 0
7 -8 14 -19 -18 12 0
7 -8 14 -19 -18 -17 0
7 -8 14 -19 -18 -17 -12 0
7 -8 14 -19 -18 -17 12 0
7 -8 14 -19 -18 17 0
7 -8 14 -19 -18 17 -12 0
7 -8 14 -19 -18 17 12 0
7 -8 14 -19 18 -12 0
7 -8 14 -19 18 -17 0
7 -8 14 -19 18 -17 -12 0
7 -8 14 -19 18 -17 12 0
7 -8 14 -19 18 17 -12 0
7 -8 14 19 -17 -12 0
7 -8 14 19 -18 -12 0
7 -8 14 19 -18 -17 0
7 -8 14 19 -18 -17 -12 0
7 -8 14 19 -18 -17 12 0
7 -8 14 19 -18 17 -12 0
7 -8 14 19 18 -17 -12 0
7 -8 14 19 18 17 12 0
7 -8 -9 0
7 -8 -9 -12 0
7 -8 -9 12 0
7 -8 -9 -17 0
7 -8 -9 -17 -12 0
7 -8 -9 -17 12 0
7 -8 -9 17 0
7 -8 -9 17 -12 0
7 -8 -9 17 12 0
7 -8 -9 -18 0
7 -8 -9 -18 -12 0
7 -8 -9 -18 12 0
7 -8 -9 -18 -17 0
7 -8 -9 -18 -17 -12 0
7 -8 -9 -18 -17 12 0
7 -8 -9 -18 17 0
7 -8 -9 -18 17 -12 0
7 -8 -9 -18 17 12 0
7 -8 -9 18 0
7 -8 -9 18 -12 0
7 -8 -9 18 12 0
7 -8 -9 18 -17 0
7 -8 -9 18 -17 -12 0
7 -8 -9 18 -17 12 0
7 -8 -9 18 17 0
7 -8 -9 18 17 -12 0
7 -8 -9 18 17 12 0
7 -8 -9 -19 0
7 -8 -9 -19 -12 0
7 -8 -9 -19 12 0
7 -8 -9 -19 -17 0
7 -8 -9 -19 -17 -12 0
7 -8 -9 -19 -17 12 0
7 -8 -9 -19 17 0
7 -8 -9 -19 17 -12 0
7 -8 -9 -19 17 12 0
7 -8 -9 -19 -18 0
7 -8 -9 -19 -18 -12 0
7 -8 -9 -19 -18 12 0
7 -8 -9 -19 -18 -17 0
7 -8 -9 -19 -18 -17 -12 0
7 -8 -9 -19 -18 -17 12 0
7 -8 -9 -19 -18 17 0
7 -8 -9 -19 -18 17 -12 0
7 -8 -9 -19 -18 17 12 0
7 -8 -9 -19 18 0
7 -8 -9 -19 18 -12 0
7 -8 -9 -19 18 12 0
7 -8 -9 -19 18 -17 0
7 -8 -9 -19 18 -17 -12 0
7 -8 -9 -19 18 -17 12 0
7 -8 -9 -19 18 17 0
7 -8 -9 -19 18 17 -12 0
7 -8 -9 -19 18 17 12 0
7 -8 -9 19 0
7 -8 -9 19 -12 0
7 -8 -9 19 12 0
7 -8 -9 19 -17 0
7 -8 -9 19 -17 -12 0
7 -8 -9 19 -17 12 0
7 -8 -9 19 17 0
7 -8 -9 19 17 -12 0
7 -8 -9 19 17 12 0
7 -8 -9 19 -18 0
7 -8 -9 19 -18 -12 0
7 -8 -9 19 -18 12 0
7 -8 -9 19 -18 -17 0
7 -8 -9 19 -18 -17 -12 0
7 -8 -9 19 -18 -17 12 0
7 -8 -9 19 -18 17 0
7 -8 -9 19 -18 17 -12 0
7 -8 -9 19 -18 17 12 0
7 -8 -9 19 18 0
7 -8 -9 19 18 -12 0
7 -8 -9 19 18 12 0
7 -8 -9 19 18 -17 0
7 -8 -9 19 18 -17 -12 0
7 -8 -9 19 18 -17 12 0
7 -8 -9 19 18 17 0
7 -8 -9 19 18 17 -12 0
7 -8 -9 19 18 17 12 0
7 -8 -9 -14 0
7 -8 -9 -14 -12 0
7 -8 -9 -14 12 0
7 -8 -9 -14 -17 0
7 -8 -9 -14 -17 -12 0
7 -8 -9 -14 -17 12 0
7 -8 -9 -14 17 0
7 -8 -9 -14 17 -12 0
7 -8 -9 -14 17 12 0
7 -8 -9 -14 -18 0
7 -8 -9 -14 -18 -12 0
7 -8 -9 -14 -18 12 0
7 -8 -9 -14 -18 -17 0
7 -8 -9 -14 -18 -17 -12 0
7 -8 -9 -14 -18 -17 12 0
7 -8 -9 -14 -18 17 0
7 -8 -9 -14 -18 17 -12 0
7 -8 -9 -14 -18 17 12 0
7 -8 -9 -14 18 0
7 -8 -9 -14 18 -12 0
7 -8 -9 -14 18 12 0
7 -8 -9 -14 18 -17 0
7 -8 -9 -14 18 -17 -12 0
7 -8 -9 -14 18 -17 12 0
7 -8 -9 -14 18 17 0
7 -8 -9 -14 18 17 -12 0
7 -8 -9 -14 18 17 12 0
7 -8 -9 -14 -19 0
7 -8 -9 -14 -19 -12 0
7 -8 -9 -14 -19 12 0
7 -8 -9 -14 -19 -17 0
7 -8 -9 -14 -19 -17 -12 0
7 -8 -9 -14 -19 -17 12 0
7 -8 -9 -14 -19 17 0
7 -8 -9 -14 -19 17 -12 0
7 -8 -9 -14 -19 17 12 0
7 -8 -9 -14 -19 -18 0
7 -8 -9 -14 -19 -18 -12 0
7 -8 -9 -14 -19 -18 12 0
7 -8 -9 -14 -19 -18 -17 0
7 -8 -9 -14 -19 -18 -17 -12 0
7 -8 -9 -14 -19 -18 -17 12 0
7 -8 -9 -14 -19 -18 17 0
7 -8 -9 -14 -19 -18 17 -12 0
7 -8 -9 -14 -19 -18 17 12 0
7 -8 -9 -14 -19 18 0
7 -8 -9 -14 -19 18 -12 0
7 -8 -9 -14 -19 18 12 0
7 -8 -9 -14 -19 18 -17 0
7 -8 -9 -14 -19 18 -17 -12 0
7 -8 -9 -14 -19 18 -17 12 0
7 -8 -9 -14 -19 18 17 0
7 -8 -9 -14 -19 18 17 -12 0
7 -8 -9 -14 -19 18 17 12 0
7 -8 -9 -14 19 0
7 -8 -9 -14 19 -12 0
7 -8 -9 -14 19 12 0
7 -8 -9 -14 19 -17 0
7 -8 -9 -14 19 -17 -12 0
7 -8 -9 -14 19 -17 12 0
7 -8 -9 -14 19 17 0
7 -8 -9 -14 19 17 -12 0
7 -8 -9 -14 19 17 12 0
7 -8 -9 -14 19 -18 0
7 -8 -9 -14 19 -18 -12 0
7 -8 -9 -14 19 -18 12 0
7 -8 -9 -14 19 -18 -17 0
7 -8 -9 -14 19 -18 -17 -12 0
7 -8 -9 -14 19 -18 -17 12 0
7 -8 -9 -14 19 -18 17 0
7 -8 -9 -14 19 -18 17 -12 0
7 -8 -9 -14 19 -18 17 12 0
7 -8 -9 -14 19 18 0
7 -8 -9 -14 19 18 -12 0
7 -8 -9 -14 19 18 12 0
7 -8 -9 -14 19 18 -17 0
7 -8 -9 -14 19 18 -17 -12 0
7 -8 -9 -14 19 18 -17 12 0
7 -8 -9 -14 19 18 17 0
7 -8 -9 -14 19 18 17 -12 0
7 -8 -9 -14 19 18 17 12 0
7 -8 -9 14 0
7 -8 -9 14 -12 0
7 -8 -9 14 12 0
7 -8 -9 14 -17 0
7 -8 -9 14 -17 -12 0
7 -8 -9 14 -17 12 0
7 -8 -9 14 17 0
7 -8 -9 14 17 -12 0
7 -8 -9 14 17 12 0
7 -8 -9 14 -18 0
7 -8 -9 14 -18 -12 0
7 -8 -9 14 -18 12 0
7 -8 -9 14 -18 -17 0
7 -8 -9 14 -18 -17 -12 0
7 -8 -9 14 -18 -17 12 0
7 -8 -9 14 -18 17 0
7 -8 -9 14 -18 17 -12 0
7 -8 -9 14 -18 17 12 0
7 -8 -9 14 18 0
7 -8 -9 14 18 -12 0
7 -8 -9 14 18 12 0
7 -8 -9 14 18 -17 0
7 -8 -9 14 18 -17 -12 0
7 -8 -9 14 18 -17 12 0
7 -8 -9 14 18 17 0
7 -8 -9 14 18 17 -12 0
7 -8 -9 14 18 17 12 0
7 -8 -9 14 -19 0
7 -8 -9 14 -19 -12 0
7 -8 -9 14 -19 12 0
7 -8 -9 14 -19 -17 0
7 -8 -9 14 -19 -17 -12 0
7 -8 -9 14 -19 -17 12 0
7 -8 -9 14 -19 17 0
7 -8 -9 14 -19 17 -12 0
7 -8 -9 14 -19 17 12 0
7 -8 -9 14 -19 -18 0
7 -8 -9 14 -19 -18 -12 0
7 -8 -9 14 -19 -18 12 0
7 -8 -9 14 -19 -18 -17 0
7 -8 -9 14 -19 -18 -17 -12 0
7 -8 -9 14 -19 -18 -17 12 0
7 -8 -9 14 -19 -18 17 0
7 -8 -9 14 -19 -18 17 -12 0
7 -8 -9 14 -19 -18 17 12 0
7 -8 -9 14 -19 18 0
7 -8 -9 14 -19 18 -12 0
7 -8 -9 14 -19 18 12 0
7 -8 -9 14 -19 18 -17 0
7 -8 -9 14 -19 18 -17 -12 0
7 -8 -9 14 -19 18 -17 12 0
7 -8 -9 14 -19 18 17 0
7 -8 -9 14 -19 18 17 -12 0
7 -8 -9 14 -19 18 17 12 0
7 -8 -9 14 19 0
7 -8 -9 14 19 -12 0
7 -8 -9 14 19 12 0
7 -8 -9 14 19 -17 0
7 -8 -9 14 19 -17 -12 0
7 -8 -9 14 19 -17 12 0
7 -8 -9 14 19 17 0
7 -8 -9 14 19 17 -12 0
7 -8 -9 14 19 17 12 0
7 -8 -9 14 19 -18 0
7 -8 -9 14 19 -18 -12 0
7 -8 -9 14 19 -18 12 0
7 -8 -9 14 19 -18 -17 0
7 -8 -9 14 19 -18 -17 -12 0
7 -8 -9 14 19 -18 -17 12 0
7 -8 -9 14 19 -18 17 0
7 -8 -9 14 19 -18 17 -12 0
7 -8 -9 14 19 -18 17 12 0
7 -8 -9 14 19 18 0
7 -8 -9 14 19 18 -12 0
7 -8 -9 14 19 18 12 0
7 -8 -9 14 19 18 -17 0
7 -8 -9 14 19 18 -17 -12 0
7 -8 -9 14 19 18 -17 12 0
7 -8 -9 14 19 18 17 0
7 -8 -9 14 19 18 17 -12 0
7 -8 -9 14 19 18 17 12 0
7 -8 9 -17 -12 0
7 -8 9 -18 -12 0
7 -8 9 -18 -17 0
7 -8 9 -18 -17 -12 0
7 -8 9 -18 -17 12 0
7 -8 9 -18 17 -12 0
7 -8 9 18 -17 -12 0
7 -8 9 -19 -12 0
7 -8 9 -19 -17 0
7 -8 9 -19 -17 -12 0
7 -8 9 -19 -17 12 0
7 -8 9 -19 17 -12 0
7 -8 9 -19 -18 0
7 -8 9 -19 -18 -12 0
7 -8 9 -19 -18 12 0
7 -8 9 -19 -18 -17 0
7 -8 9 -19 -18 -17 -12 0
7 -8 9 -19 -18 -17 12 0
7 -8 9 -19 -18 17 0
7 -8 9 -19 -18 17 -12 0
7 -8 9 -19 -18 17 12 0
7 -8 9 -19 18 -12 0
7 -8 9 -19 18 -17 0
7 -8 9 -19 18 -17 -12 0
7 -8 9 -19 18 -17 12 0
7 -8 9 -19 18 17 -12 0
7 -8 9 19 -17 -12 0
7 -8 9 19 -18 -12 0
7 -8 9 19 -18 -17 0
7 -8 9 19 -18 -17 -12 0
7 -8 9 19 -18 -17 12 0
7 -8 9 19 -18 17 -12 0
7 -8 9 19 18 -17 -12 0
7 -8 9 -14 -12 0
7 -8 9 -14 -17 0
7 -8 9 -14 -17 -12 0
7 -8 9 -14 -17 12 0
7 -8 9 -14 17 -12 0
7 -8 9 -14 -18 0
7 -8 9 -14 -18 -12 0
7 -8 9 -14 -18 12 0
7 -8 9 -14 -18 -17 0
7 -8 9 -14 -18 -17 -12 0
7 -8 9 -14 -18 -17 12 0
7 -8 9 -14 -18 17 0
7 -8 9 -14 -18 17 -12 0
7 -8 9 -14 -18 17 12 0
7 -8 9 -14 18 -12 0
7 -8 9 -14 18 -17 0
7 -8 9 -14 18 -17 -12 0
7 -8 9 -14 18 -17 12 0
7 -8 9 -14 18 17 -12 0
7 -8 9 -14 -19 0
7 -8 9 -14 -19 -12 0
7 -8 9 -14 -19 12 0
7 -8 9 -14 -19 -17 0
7 -8 9 -14 -19 -17 -12 0
7 -8 9 -14 -19 -17 12 0
7 -8 9 -14 -19 17 0
7 -8 9 -14 -19 17 -12 0
7 -8 9 -14 -19 17 12 0
7 -8 9 -14 -19 -18 0
7 -8 9 -14 -19 -18 -12 0
7 -8 9 -14 -19 -18 12 0
7 -8 9 -14 -19 -18 -17 0
7 -8 9 -14 -19 -18 -17 -12 0
7 -8 9 -14 -19 -18 -17 12 0
7 -8 9 -14 -19 -18 17 0
7 -8 9 -14 -19 -18 17 -12 0
7 -8 9 -14 -19 -18 17 12 0
7 -8 9 -14 -19 18 0
7 -8 9 -14 -19 18 -12 0
7 -8 9 -14 -19 18 12 0
7 -8 9 -14 -19 18 -17 0
7 -8 9 -14 -19 18 -17 -12 0
7 -8 9 -14 -19 18 -17 12 0
7 -8 9 -14 -19 18 17 0
7 -8 9 -14 -19 18 17 -12 0
7 -8 9 -14 -19 18 17 12 0
7 -8 9 -14 19 -12 0
7 -8 9 -14 19 -17 0
7 -8 9 -14 19 -17 -12 0
7 -8 9 -14 19 -17 12 0
7 -8 9 -14 19 17 -12 0
7 -8 9 -14 19 -18 0
7 -8 9 -14 19 -18 -12 0
7 -8 9 -14 19 -18 12 0
7 -8 9 -14 19 -18 -17 0
7 -8 9 -14 19 -18 -17 -12 0
7 -8 9 -14 19 -18 -17 12 0
7 -8 9 -14 19 -18 17 0
7 -8 9 -14 19 -18 17 -12 0
7 -8 9 -14 19 -18 17 12 0
7 -8 9 -14 19 18 -12 0
7 -8 9 -14 19 18 -17 0
7 -8 9 -14 19 18 -17 -12 0
7 -8 9 -14 19 18 -17 12 0
7 -8 9 -14 19 18 17 -12 0
7 -8 9 14 -17 -12 0
7 -8 9 14 -18 -12 0
7 -8 9 14 -18 -17 0
7 -8 9 14 -18 -17 -12 0
7 -8 9 14 -18 -17 12 0
7 -8 9 14 -18 17 -12 0
7 -8 9 14 18 -17 -12 0
7 -8 9 14 -19 -12 0
7 -8 9 14 -19 -17 0
7 -8 9 14 -19 -17 -12 0
7 -8 9 14 -19 -17 12 0
7 -8 9 14 -19 17 -12 0
7 -8 9 14 -19 -18 0
7 -8 9 14 -19 -18 -12 0
7 -8 9 14 -19 -18 12 0
7 -8 9 14 -19 -18 -17 0
7 -8 9 14 -19 -18 -17 -12 0
7 -8 9 14 -19 -18 -17 12 0
7 -8 9 14 -19 -18 17 0
7 -8 9 14 -19 -18 17 -12 0
7 -8 9 14 -19 -18 17 12 0
7 -8 9 14 -19 18 -12 0
7 -8 9 14 -19 18 -17 0
7 -8 9 14 -19 18 -17 -12 0
7 -8 9 14 -19 18 -17 12 0
7 -8 9 14 -19 18 17 -12 0
7 -8 9 14 19 -17 -12 0
7 -8 9 14 19 -18 -12 0
7 -8 9 14 19 -18 -17 0
7 -8 9 14 19 -18 -17 -12 0
7 -8 9 14 19 -18 -17 12 0
7 -8 9 14 19 -18 17 -12 0
7 -8 9 14 19 18 -17 -12 0
7 -8 9 14 19 18 17 12 0
7 8 -17 -12 0
7 8 -18 -17 0
7 8 -18 -17 -12 0
7 8 -18 -17 12 0
7 8 18 -17 -12 0
7 8 -19 -17 -12 0
7 8 -19 -18 0
7 8 -19 -18 -12 0
7 8 -19 -18 12 0
7 8 -19 -18 -17 0
7 8 -19 -18 -17 -12 0
7 8 -19 -18 -17 12 0
7 8 -19 -18 17 0
7 8 -19 -18 17 -12 0
7 8 -19 -18 17 12 0
7 8 -19 18 -17 -12 0
7 8 19 -17 -12 0
7 8 19 -18 -17 0
7 8 19 -18 -17 -12 0
7 8 19 -18 -17 12 0
7 8 19 18 -17 -12 0
7 8 19 18 17 12 0
7 8 -14 -17 -12 0
7 8 -14 -18 -12 0
7 8 -14 -18 -17 0
7 8 -14 -18 -17 -12 0
7 8 -14 -18 -17 12 0
7 8 -14 -18 17 -12 0
7 8 -14 18 -17 -12 0
7 8 -14 18 17 12 0
7 8 -14 -19 0
7 8 -14 -19 -12 0
7 8 -14 -19 12 0
7 8 -14 -19 -17 0
7 8 -14 -19 -17 -12 0
7 8 -14 -19 -17 12 0
7 8 -14 -19 17 0
7 8 -14 -19 17 -12 0
7 8 -14 -19 17 12 0
7 8 -14 -19 -18 0
7 8 -14 -19 -18 -12 0
7 8 -14 -19 -18 12 0
7 8 -14 -19 -18 -17 0
7 8 -14 -19 -18 -17 -12 0
7 8 -14 -19 -18 -17 12 0
7 8 -14 -19 -18 17 0
7 8 -14 -19 -18 17 -12 0
7 8 -14 -19 -18 17 12 0
7 8 -14 -19 18 0
7 8 -14 -19 18 -12 0
7 8 -14 -19 18 12 0
7 8 -14 -19 18 -17 0
7 8 -14 -19 18 -17 -12 0
7 8 -14 -19 18 -17 12 0
7 8 -14 -19 18 17 0
7 8 -14 -19 18 17 -12 0
7 8 -14 -19 18 17 12 0
7 8 -14 19 -17 -12 0
7 8 -14 19 -18 -12 0
7 8 -14 19 -18 -17 0
7 8 -14 19 -18 -17 -12 0
7 8 -14 19 -18 -17 12 0
7 8 -14 19 -18 17 -12 0
7 8 -14 19 18 -17 -12 0
7 8 -14 19 18 17 12 0
7 8 14 -17 -12 0
7 8 14 -18 -17 0
7 8 14 -18 -17 -12 0
7 8 14 -18 -17 12 0
7 8 14 18 -17 -12 0
7 8 14 -19 -17 -12 0
7 8 14 -19 -18 0
7 8 14 -19 -18 -12 0
7 8 14 -19 -18 12 0
7 8 14 -19 -18 -17 0
7 8 14 -19 -18 -17 -12 0
7 8 14 -19 -18 -17 12 0
7 8 14 -19 -18 17 0
7 8 14 -19 -18 17 -12 0
7 8 14 -19 -18 17 12 0
7 8 14 -19 18 -17 -12 0
7 8 14 19 -17 -12 0
7 8 14 19 -18 -17 0
7 8 14 19 -18 -17 -12 0
7 8 14 19 -18 -17 12 0
7 8 14 19 18 -17 -12 0
7 8 14 19 18 17 12 0
7 8 -9 -17 -12 0
7 8 -9 -18 -12 0
7 8 -9 -18 -17 0
7 8 -9 -18 -17 -12 0
7 8 -9 -18 -17 12 0
7 8 -9 -18 17 -12 0
7 8 -9 18 -17 -12 0
7 8 -9 -19 -12 0
7 8 -9 -19 -17 0
7 8 -9 -19 -17 -12 0
7 8 -9 -19 -17 12 0
7 8 -9 -19 17 -12 0
7 8 -9 -19 -18 0
7 8 -9 -19 -18 -12 0
7 8 -9 -19 -18 12 0
7 8 -9 -19 -18 -17 0
7 8 -9 -19 -18 -17 -12 0
7 8 -9 -19 -18 -17 12 0
7 8 -9 -19 -18 17 0
7 8 -9 -19 -18 17 -12 0
7 8 -9 -19 -18 17 12 0
7 8 -9 -19 18 -12 0
7 8 -9 -19 18 -17 0
7 8 -9 -19 18 -17 -12 0
7 8 -9 -19 18 -17 12 0
7 8 -9 -19 18 17 -12 0
7 8 -9 19 -17 -12 0
7 8 -9 19 -18 -12 0
7 8 -9 19 -18 -17 0
7 8 -9 19 -18 -17 -12 0
7 8 -9 19 -18 -17 12 0
7 8 -9 19 -18 17 -12 0
7 8 -9 19 18 -17 -12 0
7 8 -9 19 18 17 12 0
7 8 -9 -14 0
7 8 -9 -14 -12 0
7 8 -9 -14 12 0
7 8 -9 -14 -17 0
7 8 -9 -14 -17 -12 0
7 8 -9 -14 -17 12 0
7 8 -9 -14 17 0
7 8 -9 -14 17 -12 0
7 8 -9 -14 17 12 0
7 8 -9 -14 -18 0
7 8 -9 -14 -18 -12 0
7 8 -9 -14 -18 12 0
7 8 -9 -14 -18 -17 0
7 8 -9 -14 -18 -17 -12 0
7 8 -9 -14 -18 -17 12 0
7 8 -9 -14 -18 17 0
7 8 -9 -14 -18 17 -12 0
7 8 -9 -14 -18 17 12 0
7 8 -9 -14 18 0
7 8 -9 -14 18 -12 0
7 8 -9 -14 18 12 0
7 8 -9 -14 18 -17 0
7 8 -9 -14 18 -17 -12 0
7 8 -9 -14 18 -17 12 0
7 8 -9 -14 18 17 0
7 8 -9 -14 18 17 -12 0
7 8 -9 -14 18 17 12 0
7 8 -9 -14 -19 0
7 8 -9 -14 -19 -12 0
7 8 -9 -14 -19 12 0
7 8 -9 -14 -19 -17 0
7 8 -9 -14 -19 -17 -12 0
7 8 -9 -14 -19 -17 12 0
7 8 -9 -14 -19 17 0
7 8 -9 -14 -19 17 -12 0
7 8 -9 -14 -19 17 12 0
7 8 -9 -14 -19 -18 0
7 8 -9 -14 -19 -18 -12 0
7 8 -9 -14 -19 -18 12 0
7 8 -9 -14 -19 -18 -17 0
7 8 -9 -14 -19 -18 -17 -12 0
7 8 -9 -14 -19 -18 -17 12 0
7 8 -9 -14 -19 -18 17 0
7 8 -9 -14 -19 -18 17 -12 0
7 8 -9 -14 -19 -18 17 12 0
7 8 -9 -14 -19 18 0
7 8 -9 -14 -19 18 -12 0
7 8 -9 -14 -19 18 12 0
7 8 -9 -14 -19 18 -17 0
7 8 -9 -14 -19 18 -17 -12 0
7 8 -9 -14 -19 18 -17 12 0
7 8 -9 -14 -19 18 17 0
7 8 -9 -14 -19 18 17 -12 0
7 8 -9 -14 -19 18 17 12 0
7 8 -9 -14 19 0
7 8 -9 -14 19 -12 0
7 8 -9 -14 19 12 0
7 8 -9 -14 19 -17 0
7 8 -9 -14 19 -17 -12 0
7 8 -9 -14 19 -17 12 0
7 8 -9 -14 19 17 0
7 8 -9 -14 19 17 -12 0
7 8 -9 -14 19 17 12 0
7 8 -9 -14 19 -18 0
7 8 -9 -14 19 -18 -12 0
7 8 -9 -14 19 -18 12 0
7 8 -9 -14 19 -18 -17 0
7 8 -9 -14 19 -18 -17 -12 0
7 8 -9 -14 19 -18 -17 12 0
7 8 -9 -14 19 -18 17 0
7 8 -9 -14 19 -18 17 -12 0
7 8 -9 -14 19 -18 17 12 0
7 8 -9 -14 19 18 0
7 8 -9 -14 19 18 -12 0
7 8 -9 -14 19 18 12 0
7 8 -9 -14 19 18 -17 0
7 8 -9 -14 19 18 -17 -12 0
7 8 -9 -14 19 18 -17 12 0
7 8 -9 -14 19 18 17 0
7 8 -9 -14 19 18 17 -12 0
7 8 -9 -14 19 18 17 12 0
7 8 -9 14 -17 -12 0
7 8 -9 14 -18 -12 0
7 8 -9 14 -18 -17 0
7 8 -9 14 -18 -17 -12 0
7 8 -9 14 -18 -17 12 0
7 8 -9 14 -18 17 -12 0
7 8 -9 14 18 -17 -12 0
7 8 -9 14 -19 -12 0
7 8 -9 14 -19 -17 0
7 8 -9 14 -19 -17 -12 0
7 8 -9 14 -19 -17 12 0
7 8 -9 14 -19 17 -12 0
7 8 -9 14 -19 -18 0
7 8 -9 14 -19 -18 -12 0
7 8 -9 14 -19 -18 12 0
7 8 -9 14 -19 -18 -17 0
7 8 -9 14 -19 -18 -17 -12 0
7 8 -9 14 -19 -18 -17 12 0
7 8 -9 14 -19 -18 17 0
7 8 -9 14 -19 -18 17 -12 0
7 8 -9 14 -19 -18 17 12 0
7 8 -9 14 -19 18 -12 0
7 8 -9 14 -19 18 -17 0
7 8 -9 14 -19 18 -17 -12 0
7 8 -9 14 -19 18 -17 12 0
7 8 -9 14 -19 18 17 -12 0
7 8 -9 14 19 -17 -12 0
7 8 -9 14 19 -18 -12 0
7 8 -9 14 19 -18 -17 0
7 8 -9 14 19 -18 -17 -12 0
7 8 -9 14 19 -18 -17 12 0
7 8 -9 14 19 -18 17 -12 0
7 8 -9 14 19 18 -17 -12 0
7 8 -9 14 19 18 17 12 0
7 8 9 -17 -12 0
7 8 9 -18 -17 0
7 8 9 -18 -17 -12 0
7 8 9 -18 -17 12 0
7 8 9 18 -17 -12 0
7 8 9 18 17 12 0
7 8 9 -19 -17 -12 0
7 8 9 -19 17 12 0
7 8 9 -19 -18 0
7 8 9 -19 -18 -12 0
7 8 9 -19 -18 12 0
7 8 9 -19 -18 -17 0
7 8 9 -19 -18 -17 -12 0
7 8 9 -19 -18 -17 12 0
7 8 9 -19 -18 17 0
7 8 9 -19 -18 17 -12 0
7 8 9 -19 -18 17 12 0
7 8 9 -19 18 -17 -12 0
7 8 9 -19 18 17 12 0
7 8 9 19 -17 -12 0
7 8 9 19 -18 -17 0
7 8 9 19 -18 -17 -12 0
7 8 9 19 -18 -17 12 0
7 8 9 19 18 -17 -12 0
7 8 9 19 18 17 12 0
7 8 9 -14 -17 -12 0
7 8 9 -14 -18 -12 0
7 8 9 -14 -18 -17 0
7 8 9 -14 -18 -17 -12 0
7 8 9 -14 -18 -17 12 0
7 8 9 -14 -18 17 -12 0
7 8 9 -14 18 -17 -12 0
7 8 9 -14 18 17 12 0
7 8 9 -14 -19 0
7 8 9 -14 -19 -12 0
7 8 9 -14 -19 12 0
7 8 9 -14 -19 -17 0
7 8 9 -14 -19 -17 -12 0
7 8 9 -14 -19 -17 12 0
7 8 9 -14 -19 17 0
7 8 9 -14 -19 17 -12 0
7 8 9 -14 -19 17 12 0
7 8 9 -14 -19 -18 0
7 8 9 -14 -19 -18 -12 0
7 8 9 -14 -19 -18 12 0
7 8 9 -14 -19 -18 -17 0
7 8 9 -14 -19 -18 -17 -12 0
7 8 9 -14 -19 -18 -17 12 0
7 8 9 -14 -19 -18 17 0
7 8 9 -14 -19 -18 17 -12 0
7 8 9 -14 -19 -18 17 12 0
7 8 9 -14 -19 18 0
7 8 9 -14 -19 18 -12 0
7 8 9 -14 -19 18 12 0
7 8 9 -14 -19 18 -17 0
7 8 9 -14 -19 18 -17 -12 0
7 8 9 -14 -19 18 -17 12 0
7 8 9 -14 -19 18 17 0
7 8 9 -14 -19 18 17 -12 0
7 8 9 -14 -19 18 17 12 0
7 8 9 -14 19 -17 -12 0
7 8 9 -14 19 -18 -12 0
7 8 9 -14 19 -18 -17 0
7 8 9 -14 19 -18 -17 -12 0
7 8 9 -14 19 -18 -17 12 0
7 8 9 -14 19 -18 17 -12 0
7 8 9 -14 19 18 -17 -12 0
7 8 9 -14 19 18 17 12 0
7 8 9 14 -17 -12 0
7 8 9 14 17 12 0
7 8 9 14 -18 12 0
7 8 9 14 -18 -17 0
7 8 9 14 -18 -17 -12 0
7 8 9 14 -18 -17 12 0
7 8 9 14 -18 17 12 0
7 8 9 14 18 -17 -12 0
7 8 9 14 18 17 12 0
7 8 9 14 -19 -17 -12 0
7 8 9 14 -19 17 12 0
7 8 9 14 -19 -18 0
7 8 9 14 -19 -18 -12 0
7 8 9 14 -19 -18 12 0
7 8 9 14 -19 -18 -17 0
7 8 9 14 -19 -18 -17 -12 0
7 8 9 14 -19 -18 -17 12 0
7 8 9 14 -19 -18 17 0
7 8 9 14 -19 -18 17 -12 0
7 8 9 14 -19 -18 17 12 0
7 8 9 14 -19 18 -17 -12 0
7 8 9 14 -19 18 17 12 0
7 8 9 14 19 12 0
7 8 9 14 19 -17 0
7 8 9 14 19 -17 -12 0
7 8 9 14 19 -17 12 0
7 8 9 14 19 17 12 0
7 8 9 14 19 -18 12 0
7 8 9 14 19 -18 -17 0
7 8 9 14 19 -18 -17 -12 0
7 8 9 14 19 -18 -17 12 0
7 8 9 14 19 -18 17 12 0
7 8 9 14 19 18 0
7 8 9 14 19 18 -12 0
7 8 9 14 19 18 12 0
7 8 9 14 19 18 -17 0
7 8 9 14 19 18 -17 -12 0
7 8 9 14 19 18 -17 12 0
7 8 9 14 19 18 17 0
7 8 9 14 19 18 17 -12 0
7 8 9 14 19 18 17 12 0

c Clauses pour la case (1,5) avec indice 1
-21 0
-17 -22 0
-16 -22 0
-16 -17 0
-16 -17 -22 0
-16 -17 22 0
-16 17 -22 0
16 -17 -22 0
16 17 22 0

c Clauses pour la case (5,5) avec indice 3
-25 0
24 0
20 0
19 0

c Clauses pour la continuité
-1 26 27 28 29 30 31 32 33 34 35 36 37 38 39 40 41 42 43 44 45 46 47 48 49 50 0
-2 51 52 53 54 55 56 57 58 59 60 61 62 63 64 65 66 67 68 69 70 71 72 73 74 75 0
-3 76 77 78 79 80 81 82 83 84 85 86 87 88 89 90 91 92 93 94 95 96 97 98 99 100 0
-4 101 102 103 104 105 106 107 108 109 110 111 112 113 114 115 116 117 118 119 120 121 122 123 124 125 0
-5 126 127 128 129 130 131 132 133 134 135 136 137 138 139 140 141 142 143 144 145 146 147 148 149 150 0
-6 151 152 153 154 155 156 157 158 159 160 161 162 163 164 165 166 167 168 169 170 171 172 173 174 175 0
-7 176 177 178 179 180 181 182 183 184 185 186 187 188 189 190 191 192 193 194 195 196 197 198 199 200 0
-8 201 202 203 204 205 206 207 208 209 210 211 212 213 214 215 216 217 218 219 220 221 222 223 224 225 0
-9 226 227 228 229 230 231 232 233 234 235 236 237 238 239 240 241 242 243 244 245 246 247 248 249 250 0
-10 251 252 253 254 255 256 257 258 259 260 261 262 263 264 265 266 267 268 269 270 271 272 273 274 275 0
-11 276 277 278 279 280 281 282 283 284 285 286 287 288 289 290 291 292 293 294 295 296 297 298 299 300 0
-12 301 302 303 304 305 306 307 308 309 310 311 312 313 314 315 316 317 318 319 320 321 322 323 324 325 0
-13 326 327 328 329 330 331 332 333 334 335 336 337 338 339 340 341 342 343 344 345 346 347 348 349 350 0
-14 351 352 353 354 355 356 357 358 359 360 361 362 363 364 365 366 367 368 369 370 371 372 373 374 375 0
-15 376 377 378 379 380 381 382 383 384 385 386 387 388 389 390 391 392 393 394 395 396 397 398 399 400 0
-16 401 402 403 404 405 406 407 408 409 410 411 412 413 414 415 416 417 418 419 420 421 422 423 424 425 0
-17 426 427 428 429 430 431 432 433 434 435 436 437 438 439 440 441 442 443 444 445 446 447 448 449 450 0
-18 451 452 453 454 455 456 457 458 459 460 461 462 463 464 465 466 467 468 469 470 471 472 473 474 475 0
-19 476 477 478 479 480 481 482 483 484 485 486 487 488 489 490 491 492 493 494 495 496 497 498 499 500 0
-20 501 502 503 504 505 506 507 508 509 510 511 512 513 514 515 516 517 518 519 520 521 522 523 524 525 0
-21 526 527 528 529 530 531 532 533 534 535 536 537 538 539 540 541 542 543 544 545 546 547 548 549 550 0
-22 551 552 553 554 555 556 557 558 559 560 561 562 563 564 565 566 567 568 569 570 571 572 573 574 575 0
-23 576 577 578 579 580 581 582 583 584 585 586 587 588 589 590 591 592 593 594 595 596 597 598 599 600 0
-24 601 602 603 604 605 606 607 608 609 610 611 612 613 614 615 616 617 618 619 620 621 622 623 624 625 0
-25 626 627 628 629 630 631 632 633 634 635 636 637 638 639 640 641 642 643 644 645 646 647 648 649 650 0
-26 1 0
-27 1 0
-28 1 0
-29 1 0
-30 1 0
-31 1 0
-32 1 0
-33 1 0
-34 1 0
-35 1 0
-36 1 0
-37 1 0
-38 1 0
-39 1 0
-40 1 0
-41 1 0
-42 1 0
-43 1 0
-44 1 0
-45 1 0
-46 1 0
-47 1 0
-48 1 0
-49 1 0
-50 1 0
-51 2 0
-52 2 0
-53 2 0
-54 2 0
-55 2 0
-56 2 0
-57 2 0
-58 2 0
-59 2 0
-60 2 0
-61 2 0
-62 2 0
-63 2 0
-64 2 0
-65 2 0
-66 2 0
-67 2 0
-68 2 0
-69 2 0
-70 2 0
-71 2 0
-72 2 0
-73 2 0
-74 2 0
-75 2 0
-76 3 0
-77 3 0
-78 3 0
-79 3 0
-80 3 0
-81 3 0
-82 3 0
-83 3 0
-84 3 0
-85 3 0
-86 3 0
-87 3 0
-88 3 0
-89 3 0
-90 3 0
-91 3 0
-92 3 0
-93 3 0
-94 3 0
-95 3 0
-96 3 0
-97 3 0
-98 3 0
-99 3 0
-100 3 0
-101 4 0
-102 4 0
-103 4 0
-104 4 0
-105 4 0
-106 4 0
-107 4 0
-108 4 0
-109 4 0
-110 4 0
-111 4 0
-112 4 0
-113 4 0
-114 4 0
-115 4 0
-116 4 0
-117 4 0
-118 4 0
-119 4 0
-120 4 0
-121 4 0
-122 4 0
-123 4 0
-124 4 0
-125 4 0
-126 5 0
-127 5 0
-128 5 0
-129 5 0
-130 5 0
-131 5 0
-132 5 0
-133 5 0
-134 5 0
-135 5 0
-136 5 0
-137 5 0
-138 5 0
-139 5 0
-140 5 0
-141 5 0
-142 5 0
-143 5 0
-144 5 0
-145 5 0
-146 5 0
-147 5 0
-148 5 0
-149 5 0
-150 5 0
-151 6 0
-152 6 0
-153 6 0
-154 6 0
-155 6 0
-156 6 0
-157 6 0
-158 6 0
-159 6 0
-160 6 0
-161 6 0
-162 6 0
-163 6 0
-164 6 0
-165 6 0
-166 6 0
-167 6 0
-168 6 0
-169 6 0
-170 6 0
-171 6 0
-172 6 0
-173 6 0
-174 6 0
-175 6 0
-176 7 0
-177 7 0
-178 7 0
-179 7 0
-180 7 0
-181 7 0
-182 7 0
-183 7 0
-184 7 0
-185 7 0
-186 7 0
-187 7 0
-188 7 0
-189 7 0
-190 7 0
-191 7 0
-192 7 0
-193 7 0
-194 7 0
-195 7 0
-196 7 0
-197 7 0
-198 7 0
-199 7 0
-200 7 0
-201 8 0
-202 8 0
-203 8 0
-204 8 0
-205 8 0
-206 8 0
-207 8 0
-208 8 0
-209 8 0
-210 8 0
-211 8 0
-212 8 0
-213 8 0
-214 8 0
-215 8 0
-216 8 0
-217 8 0
-218 8 0
-219 8 0
-220 8 0
-221 8 0
-222 8 0
-223 8 0
-224 8 0
-225 8 0
-226 9 0
-227 9 0
-228 9 0
-229 9 0
-230 9 0
-231 9 0
-232 9 0
-233 9 0
-234 9 0
-235 9 0
-236 9 0
-237 9 0
-238 9 0
-239 9 0
-240 9 0
-241 9 0
-242 9 0
-243 9 0
-244 9 0
-245 9 0
-246 9 0
-247 9 0
-248 9 0
-249 9 0
-250 9 0
-251 10 0
-252 10 0
-253 10 0
-254 10 0
-255 10 0
-256 10 0
-257 10 0
-258 10 0
-259 10 0
-260 10 0
-261 10 0
-262 10 0
-263 10 0
-264 10 0
-265 10 0
-266 10 0
-267 10 0
-268 10 0
-269 10 0
-270 10 0
-271 10 0
-272 10 0
-273 10 0
-274 10 0
-275 10 0
-276 11 0
-277 11 0
-278 11 0
-279 11 0
-280 11 0
-281 11 0
-282 11 0
-283 11 0
-284 11 0
-285 11 0
-286 11 0
-287 11 0
-288 11 0
-289 11 0
-290 11 0
-291 11 0
-292 11 0
-293 11 0
-294 11 0
-295 11 0
-296 11 0
-297 11 0
-298 11 0
-299 11 0
-300 11 0
-301 12 0
-302 12 0
-303 12 0
-304 12 0
-305 12 0
-306 12 0
-307 12 0
-308 12 0
-309 12 0
-310 12 0
-311 12 0
-312 12 0
-313 12 0
-314 12 0
-315 12 0
-316 12 0
-317 12 0
-318 12 0
-319 12 0
-320 12 0
-321 12 0
-322 12 0
-323 12 0
-324 12 0
-325 12 0
-326 13 0
-327 13 0
-328 13 0
-329 13 0
-330 13 0
-331 13 0
-332 13 0
-333 13 0
-334 13 0
-335 13 0
-336 13 0
-337 13 0
-338 13 0
-339 13 0
-340 13 0
-341 13 0
-342 13 0
-343 13 0
-344 13 0
-345 13 0
-346 13 0
-347 13 0
-348 13 0
-349 13 0
-350 13 0
-351 14 0
-352 14 0
-353 14 0
-354 14 0
-355 14 0
-356 14 0
-357 14 0
-358 14 0
-359 14 0
-360 14 0
-361 14 0
-362 14 0
-363 14 0
-364 14 0
-365 14 0
-366 14 0
-367 14 0
-368 14 0
-369 14 0
-370 14 0
-371 14 0
-372 14 0
-373 14 0
-374 14 0
-375 14 0
-376 15 0
-377 15 0
-378 15 0
-379 15 0
-380 15 0
-381 15 0
-382 15 0
-383 15 0
-384 15 0
-385 15 0
-386 15 0
-387 15 0
-388 15 0
-389 15 0
-390 15 0
-391 15 0
-392 15 0
-393 15 0
-394 15 0
-395 15 0
-396 15 0
-397 15 0
-398 15 0
-399 15 0
-400 15 0
-401 16 0
-402 16 0
-403 16 0
-404 16 0
-405 16 0
-406 16 0
-407 16 0
-408 16 0
-409 16 0
-410 16 0
-411 16 0
-412 16 0
-413 16 0
-414 16 0
-415 16 0
-416 16 0
-417 16 0
-418 16 0
-419 16 0
-420 16 0
-421 16 0
-422 16 0
-423 16 0
-424 16 0
-425 16 0
-426 17 0
-427 17 0
-428 17 0
-429 17 0
-430 17 0
-431 17 0
-432 17 0
-433 17 0
-434 17 0
-435 17 0
-436 17 0
-437 17 0
-438 17 0
-439 17 0
-440 17 0
-441 17 0
-442 17 0
-443 17 0
-444 17 0
-445 17 0
-446 17 0
-447 17 0
-448 17 0
-449 17 0
-450 17 0
-451 18 0
-452 18 0
-453 18 0
-454 18 0
-455 18 0
-456 18 0
-457 18 0
-458 18 0
-459 18 0
-460 18 0
-461 18 0
-462 18 0
-463 18 0
-464 18 0
-465 18 0
-466 18 0
-467 18 0
-468 18 0
-469 18 0
-470 18 0
-471 18 0
-472 18 0
-473 18 0
-474 18 0
-475 18 0
-476 19 0
-477 19 0
-478 19 0
-479 19 0
-480 19 0
-481 19 0
-482 19 0
-483 19 0
-484 19 0
-485 19 0
-486 19 0
-487 19 0
-488 19 0
-489 19 0
-490 19 0
-491 19 0
-492 19 0
-493 19 0
-494 19 0
-495 19 0
-496 19 0
-497 19 0
-498 19 0
-499 19 0
-500 19 0
-501 20 0
-502 20 0
-503 20 0
-504 20 0
-505 20 0
-506 20 0
-507 20 0
-508 20 0
-509 20 0
-510 20 0
-511 20 0
-512 20 0
-513 20 0
-514 20 0
-515 20 0
-516 20 0
-517 20 0
-518 20 0
-519 20 0
-520 20 0
-521 20 0
-522 20 0
-523 20 0
-524 20 0
-525 20 0
-526 21 0
-527 21 0
-528 21 0
-529 21 0
-530 21 0
-531 21 0
-532 21 0
-533 21 0
-534 21 0
-535 21 0
-536 21 0
-537 21 0
-538 21 0
-539 21 0
-540 21 0
-541 21 0
-542 21 0
-543 21 0
-544 21 0
-545 21 0
-546 21 0
-547 21 0
-548 21 0
-549 21 0
-550 21 0
-551 22 0
-552 22 0
-553 22 0
-554 22 0
-555 22 0
-556 22 0
-557 22 0
-558 22 0
-559 22 0
-560 22 0
-561 22 0
-562 22 0
-563 22 0
-564 22 0
-565 22 0
-566 22 0
-567 22 0
-568 22 0
-569 22 0
-570 22 0
-571 22 0
-572 22 0
-573 22 0
-574 22 0
-575 22 0
-576 23 0
-577 23 0
-578 23 0
-579 23 0
-580 23 0
-581 23 0
-582 23 0
-583 23 0
-584 23 0
-585 23 0
-586 23 0
-587 23 0
-588 23 0
-589 23 0
-590 23 0
-591 23 0
-592 23 0
-593 23 0
-594 23 0
-595 23 0
-596 23 0
-597 23 0
-598 23 0
-599 23 0
-600 23 0
-601 24 0
-602 24 0
-603 24 0
-604 24 0
-605 24 0
-606 24 0
-607 24 0
-608 24 0
-609 24 0
-610 24 0
-611 24 0
-612 24 0
-613 24 0
-614 24 0
-615 24 0
-616 24 0
-617 24 0
-618 24 0
-619 24 0
-620 24 0
-621 24 0
-622 24 0
-623 24 0
-624 24 0
-625 24 0
-626 25 0
-627 25 0
-628 25 0
-629 25 0
-630 25 0
-631 25 0
-632 25 0
-633 25 0
-634 25 0
-635 25 0
-636 25 0
-637 25 0
-638 25 0
-639 25 0
-640 25 0
-641 25 0
-642 25 0
-643 25 0
-644 25 0
-645 25 0
-646 25 0
-647 25 0
-648 25 0
-649 25 0
-650 25 0
-26 -27 0
-26 -28 0
-26 -29 0
-26 -30 0
-26 -31 0
-26 -32 0
-26 -33 0
-26 -34 0
-26 -35 0
-26 -36 0
-26 -37 0
-26 -38 0
-26 -39 0
-26 -40 0
-26 -41 0
-26 -42 0
-26 -43 0
-26 -44 0
-26 -45 0
-26 -46 0
-26 -47 0
-26 -48 0
-26 -49 0
-26 -50 0
-27 -28 0
-27 -29 0
-27 -30 0
-27 -31 0
-27 -32 0
-27 -33 0
-27 -34 0
-27 -35 0
-27 -36 0
-27 -37 0
-27 -38 0
-27 -39 0
-27 -40 0
-27 -41 0
-27 -42 0
-27 -43 0
-27 -44 0
-27 -45 0
-27 -46 0
-27 -47 0
-27 -48 0
-27 -49 0
-27 -50 0
-28 -29 0
-28 -30 0
-28 -31 0
-28 -32 0
-28 -33 0
-28 -34 0
-28 -35 0
-28 -36 0
-28 -37 0
-28 -38 0
-28 -39 0
-28 -40 0
-28 -41 0
-28 -42 0
-28 -43 0
-28 -44 0
-28 -45 0
-28 -46 0
-28 -47 0
-28 -48 0
-28 -49 0
-28 -50 0
-29 -30 0
-29 -31 0
-29 -32 0
-29 -33 0
-29 -34 0
-29 -35 0
-29 -36 0
-29 -37 0
-29 -38 0
-29 -39 0
-29 -40 0
-29 -41 0
-29 -42 0
-29 -43 0
-29 -44 0
-29 -45 0
-29 -46 0
-29 -47 0
-29 -48 0
-29 -49 0
-29 -50 0
-30 -31 0
-30 -32 0
-30 -33 0
-30 -34 0
-30 -35 0
-30 -36 0
-30 -37 0
-30 -38 0
-30 -39 0
-30 -40 0
-30 -41 0
-30 -42 0
-30 -43 0
-30 -44 0
-30 -45 0
-30 -46 0
-30 -47 0
-30 -48 0
-30 -49 0
-30 -50 0
-31 -32 0
-31 -33 0
-31 -34 0
-31 -35 0
-31 -36 0
-31 -37 0
-31 -38 0
-31 -39 0
-31 -40 0
-31 -41 0
-31 -42 0
-31 -43 0
-31 -44 0
-31 -45 0
-31 -46 0
-31 -47 0
-31 -48 0
-31 -49 0
-31 -50 0
-32 -33 0
-32 -34 0
-32 -35 0
-32 -36 0
-32 -37 0
-32 -38 0
-32 -39 0
-32 -40 0
-32 -41 0
-32 -42 0
-32 -43 0
-32 -44 0
-32 -45 0
-32 -46 0
-32 -47 0
-32 -48 0
-32 -49 0
-32 -50 0
-33 -34 0
-33 -35 0
-33 -36 0
-33 -37 0
-33 -38 0
-33 -39 0
-33 -40 0
-33 -41 0
-33 -42 0
-33 -43 0
-33 -44 0
-33 -45 0
-33 -46 0
-33 -47 0
-33 -48 0
-33 -49 0
-33 -50 0
-34 -35 0
-34 -36 0
-34 -37 0
-34 -38 0
-34 -39 0
-34 -40 0
-34 -41 0
-34 -42 0
-34 -43 0
-34 -44 0
-34 -45 0
-34 -46 0
-34 -47 0
-34 -48 0
-34 -49 0
-34 -50 0
-35 -36 0
-35 -37 0
-35 -38 0
-35 -39 0
-35 -40 0
-35 -41 0
-35 -42 0
-35 -43 0
-35 -44 0
-35 -45 0
-35 -46 0
-35 -47 0
-35 -48 0
-35 -49 0
-35 -50 0
-36 -37 0
-36 -38 0
-36 -39 0
-36 -40 0
-36 -41 0
-36 -42 0
-36 -43 0
-36 -44 0
-36 -45 0
-36 -46 0
-36 -47 0
-36 -48 0
-36 -49 0
-36 -50 0
-37 -38 0
-37 -39 0
-37 -40 0
-37 -41 0
-37 -42 0
-37 -43 0
-37 -44 0
-37 -45 0
-37 -46 0
-37 -47 0
-37 -48 0
-37 -49 0
-37 -50 0
-38 -39 0
-38 -40 0
-38 -41 0
-38 -42 0
-38 -43 0
-38 -44 0
-38 -45 0
-38 -46 0
-38 -47 0
-38 -48 0
-38 -49 0
-38 -50 0
-39 -40 0
-39 -41 0
-39 -42 0
-39 -43 0
-39 -44 0
-39 -45 0
-39 -46 0
-39 -47 0
-39 -48 0
-39 -49 0
-39 -50 0
-40 -41 0
-40 -42 0
-40 -43 0
-40 -44 0
-40 -45 0
-40 -46 0
-40 -47 0
-40 -48 0
-40 -49 0
-40 -50 0
-41 -42 0
-41 -43 0
-41 -44 0
-41 -45 0
-41 -46 0
-41 -47 0
-41 -48 0
-41 -49 0
-41 -50 0
-42 -43 0
-42 -44 0
-42 -45 0
-42 -46 0
-42 -47 0
-42 -48 0
-42 -49 0
-42 -50 0
-43 -44 0
-43 -45 0
-43 -46 0
-43 -47 0
-43 -48 0
-43 -49 0
-43 -50 0
-44 -45 0
-44 -46 0
-44 -47 0
-44 -48 0
-44 -49 0
-44 -50 0
-45 -46 0
-45 -47 0
-45 -48 0
-45 -49 0
-45 -50 0
-46 -47 0
-46 -48 0
-46 -49 0
-46 -50 0
-47 -48 0
-47 -49 0
-47 -50 0
-48 -49 0
-48 -50 0
-49 -50 0
-51 -52 0
-51 -53 0
-51 -54 0
-51 -55 0
-51 -56 0
-51 -57 0
-51 -58 0
-51 -59 0
-51 -60 0
-51 -61 0
-51 -62 0
-51 -63 0
-51 -64 0
-51 -65 0
-51 -66 0
-51 -67 0
-51 -68 0
-51 -69 0
-51 -70 0
-51 -71 0
-51 -72 0
-51 -73 0
-51 -74 0
-51 -75 0
-52 -53 0
-52 -54 0
-52 -55 0
-52 -56 0
-52 -57 0
-52 -58 0
-52 -59 0
-52 -60 0
-52 -61 0
-52 -62 0
-52 -63 0
-52 -64 0
-52 -65 0
-52 -66 0
-52 -67 0
-52 -68 0
-52 -69 0
-52 -70 0
-52 -71 0
-52 -72 0
-52 -73 0
-52 -74 0
-52 -75 0
-53 -54 0
-53 -55 0
-53 -56 0
-53 -57 0
-53 -58 0
-53 -59 0
-53 -60 0
-53 -61 0
-53 -62 0
-53 -63 0
-53 -64 0
-53 -65 0
-53 -66 0
-53 -67 0
-53 -68 0
-53 -69 0
-53 -70 0
-53 -71 0
-53 -72 0
-53 -73 0
-53 -74 0
-53 -75 0
-54 -55 0
-54 -56 0
-54 -57 0
-54 -58 0
-54 -59 0
-54 -60 0
-54 -61 0
-54 -62 0
-54 -63 0
-54 -64 0
-54 -65 0
-54 -66 0
-54 -67 0
-54 -68 0
-54 -69 0
-54 -70 0
-54 -71 0
-54 -72 0
-54 -73 0
-54 -74 0
-54 -75 0
-55 -56 0
-55 -57 0
-55 -58 0
-55 -59 0
-55 -60 0
-55 -61 0
-55 -62 0
-55 -63 0
-55 -64 0
-55 -65 0
-55 -66 0
-55 -67 0
-55 -68 0
-55 -69 0
-55 -70 0
-55 -71 0
-55 -72 0
-55 -73 0
-55 -74 0
-55 -75 0
-56 -57 0
-56 -58 0
-56 -59 0
-56 -60 0
-56 -61 0
-56 -62 0
-56 -63 0
-56 -64 0
-56 -65 0
-56 -66 0
-56 -67 0
-56 -68 0
-56 -69 0
-56 -70 0
-56 -71 0
-56 -72 0
-56 -73 0
-56 -74 0
-56 -75 0
-57 -58 0
-57 -59 0
-57 -60 0
-57 -61 0
-57 -62 0
-57 -63 0
-57 -64 0
-57 -65 0
-57 -66 0
-57 -67 0
-57 -68 0
-57 -69 0
-57 -70 0
-57 -71 0
-57 -72 0
-57 -73 0
-57 -74 0
-57 -75 0
-58 -59 0
-58 -60 0
-58 -61 0
-58 -62 0
-58 -63 0
-58 -64 0
-58 -65 0
-58 -66 0
-58 -67 0
-58 -68 0
-58 -69 0
-58 -70 0
-58 -71 0
-58 -72 0
-58 -73 0
-58 -74 0
-58 -75 0
-59 -60 0
-59 -61 0
-59 -62 0
-59 -63 0
-59 -64 0
-59 -65 0
-59 -66 0
-59 -67 0
-59 -68 0
-59 -69 0
-59 -70 0
-59 -71 0
-59 -72 0
-59 -73 0
-59 -74 0
-59 -75 0
-60 -61 0
-60 -62 0
-60 -63 0
-60 -64 0
-60 -65 0
-60 -66 0
-60 -67 0
-60 -68 0
-60 -69 0
-60 -70 0
-60 -71 0
-60 -72 0
-60 -73 0
-60 -74 0
-60 -75 0
-61 -62 0
-61 -63 0
-61 -64 0
-61 -65 0
-61 -66 0
-61 -67 0
-61 -68 0
-61 -69 0
-61 -70 0
-61 -71 0
-61 -72 0
-61 -73 0
-61 -74 0
-61 -75 0
-62 -63 0
-62 -64 0
-62 -65 0
-62 -66 0
-62 -67 0
-62 -68 0
-62 -69 0
-62 -70 0
-62 -71 0
-62 -72 0
-62 -73 0
-62 -74 0
-62 -75 0
-63 -64 0
-63 -65 0
-63 -66 0
-63 -67 0
-63 -68 0
-63 -69 0
-63 -70 0
-63 -71 0
-63 -72 0
-63 -73 0
-63 -74 0
-63 -75 0
-64 -65 0
-64 -66 0
-64 -67 0
-64 -68 0
-64 -69 0
-64 -70 0
-64 -71 0
-64 -72 0
-64 -73 0
-64 -74 0
-64 -75 0
-65 -66 0
-65 -67 0
-65 -68 0
-65 -69 0
-65 -70 0
-65 -71 0
-65 -72 0
-65 -73 0
-65 -74 0
-65 -75 0
-66 -67 0
-66 -68 0
-66 -69 0
-66 -70 0
-66 -71 0
-66 -72 0
-66 -73 0
-66 -74 0
-66 -75 0
-67 -68 0
-67 -69 0
-67 -70 0
-67 -71 0
-67 -72 0
-67 -73 0
-67 -74 0
-67 -75 0
-68 -69 0
-68 -70 0
-68 -71 0
-68 -72 0
-68 -73 0
-68 -74 0
-68 -75 0
-69 -70 0
-69 -71 0
-69 -72 0
-69 -73 0
-69 -74 0
-69 -75 0
-70 -71 0
-70 -72 0
-70 -73 0
-70 -74 0
-70 -75 0
-71 -72 0
-71 -73 0
-71 -74 0
-71 -75 0
-72 -73 0
-72 -74 0
-72 -75 0
-73 -74 0
-73 -75 0
-74 -75 0
-76 -77 0
-76 -78 0
-76 -79 0
-76 -80 0
-76 -81 0
-76 -82 0
-76 -83 0
-76 -84 0
-76 -85 0
-76 -86 0
-76 -87 0
-76 -88 0
-76 -89 0
-76 -90 0
-76 -91 0
-76 -92 0
-76 -93 0
-76 -94 0
-76 -95 0
-76 -96 0
-76 -97 0
-76 -98 0
-76 -99 0
-76 -100 0
-77 -78 0
-77 -79 0
-77 -80 0
-77 -81 0
-77 -82 0
-77 -83 0
-77 -84 0
-77 -85 0
-77 -86 0
-77 -87 0
-77 -88 0
-77 -89 0
-77 -90 0
-77 -91 0
-77 -92 0
-77 -93 0
-77 -94 0
-77 -95 0
-77 -96 0
-77 -97 0
-77 -98 0
-77 -99 0
-77 -100 0
-78 -79 0
-78 -80 0
-78 -81 0
-78 -82 0
-78 -83 0
-78 -84 0
-78 -85 0
-78 -86 0
-78 -87 0
-78 -88 0
-78 -89 0
-78 -90 0
-78 -91 0
-78 -92 0
-78 -93 0
-78 -94 0
-78 -95 0
-78 -96 0
-78 -97 0
-78 -98 0
-78 -99 0
-78 -100 0
-79 -80 0
-79 -81 0
-79 -82 0
-79 -83 0
-79 -84 0
-79 -85 0
-79 -86 0
-79 -87 0
-79 -88 0
-79 -89 0
-79 -90 0
-79 -91 0
-79 -92 0
-79 -93 0
-79 -94 0
-79 -95 0
-79 -96 0
-79 -97 0
-79 -98 0
-79 -99 0
-79 -100 0
-80 -81 0
-80 -82 0
-80 -83 0
-80 -84 0
-80 -85 0
-80 -86 0
-80 -87 0
-80 -88 0
-80 -89 0
-80 -90 0
-80 -91 0
-80 -92 0
-80 -93 0
-80 -94 0
-80 -95 0
-80 -96 0
-80 -97 0
-80 -98 0
-80 -99 0
-80 -100 0
-81 -82 0
-81 -83 0
-81 -84 0
-81 -85 0
-81 -86 0
-81 -87 0
-81 -88 0
-81 -89 0
-81 -90 0
-81 -91 0
-81 -92 0
-81 -93 0
-81 -94 0
-81 -95 0
-81 -96 0
-81 -97 0
-81 -98 0
-81 -99 0
-81 -100 0
-82 -83 0
-82 -84 0
-82 -85 0
-82 -86 0
-82 -87 0
-82 -88 0
-82 -89 0
-82 -90 0
-82 -91 0
-82 -92 0
-82 -93 0
-82 -94 0
-82 -95 0
-82 -96 0
-82 -97 0
-82 -98 0
-82 -99 0
-82 -100 0
-83 -84 0
-83 -85 0
-83 -86 0
-83 -87 0
-83 -88 0
-83 -89 0
-83 -90 0
-83 -91 0
-83 -92 0
-83 -93 0
-83 -94 0
-83 -95 0
-83 -96 0
-83 -97 0
-83 -98 0
-83 -99 0
-83 -100 0
-84 -85 0
-84 -86 0
-84 -87 0
-84 -88 0
-84 -89 0
-84 -90 0
-84 -91 0
-84 -92 0
-84 -93 0
-84 -94 0
-84 -95 0
-84 -96 0
-84 -97 0
-84 -98 0
-84 -99 0
-84 -100 0
-85 -86 0
-85 -87 0
-85 -88 0
-85 -89 0
-85 -90 0
-85 -91 0
-85 -92 0
-85 -93 0
-85 -94 0
-85 -95 0
-85 -96 0
-85 -97 0
-85 -98 0
-85 -99 0
-85 -100 0
-86 -87 0
-86 -88 0
-86 -89 0
-86 -90 0
-86 -91 0
-86 -92 0
-86 -93 0
-86 -94 0
-86 -95 0
-86 -96 0
-86 -97 0
-86 -98 0
-86 -99 0
-86 -100 0
-87 -88 0
-87 -89 0
-87 -90 0
-87 -91 0
-87 -92 0
-87 -93 0
-87 -94 0
-87 -95 0
-87 -96 0
-87 -97 0
-87 -98 0
-87 -99 0
-87 -100 0
-88 -89 0
-88 -90 0
-88 -91 0
-88 -92 0
-88 -93 0
-88 -94 0
-88 -95 0
-88 -96 0
-88 -97 0
-88 -98 0
-88 -99 0
-88 -100 0
-89 -90 0
-89 -91 0
-89 -92 0
-89 -93 0
-89 -94 0
-89 -95 0
-89 -96 0
-89 -97 0
-89 -98 0
-89 -99 0
-89 -100 0
-90 -91 0
-90 -92 0
-90 -93 0
-90 -94 0
-90 -95 0
-90 -96 0
-90 -97 0
-90 -98 0
-90 -99 0
-90 -100 0
-91 -92 0
-91 -93 0
-91 -94 0
-91 -95 0
-91 -96 0
-91 -97 0
-91 -98 0
-91 -99 0
-91 -100 0
-92 -93 0
-92 -94 0
-92 -95 0
-92 -96 0
-92 -97 0
-92 -98 0
-92 -99 0
-92 -100 0
-93 -94 0
-93 -95 0
-93 -96 0
-93 -97 0
-93 -98 0
-93 -99 0
-93 -100 0
-94 -95 0
-94 -96 0
-94 -97 0
-94 -98 0
-94 -99 0
-94 -100 0
-95 -96 0
-95 -97 0
-95 -98 0
-95 -99 0
-95 -100 0
-96 -97 0
-96 -98 0
-96 -99 0
-96 -100 0
-97 -98 0
-97 -99 0
-97 -100 0
-98 -99 0
-98 -100 0
-99 -100 0
-101 -102 0
-101 -103 0
-101 -104 0
-101 -105 0
-101 -106 0
-101 -107 0
-101 -108 0
-101 -109 0
-101 -110 0
-101 -111 0
-101 -112 0
-101 -113 0
-101 -114 0
-101 -115 0
-101 -116 0
-101 -117 0
-101 -118 0
-101 -119 0
-101 -120 0
-101 -121 0
-101 -122 0
-101 -123 0
-101 -124 0
-101 -125 0
-102 -103 0
-102 -104 0
-102 -105 0
-102 -106 0
-102 -107 0
-102 -108 0
-102 -109 0
-102 -110 0
-102 -111 0
-102 -112 0
-102 -113 0
-102 -114 0
-102 -115 0
-102 -116 0
-102 -117 0
-102 -118 0
-102 -119 0
-102 -120 0
-102 -121 0
-102 -122 0
-102 -123 0
-102 -124 0
-102 -125 0
-103 -104 0
-103 -105 0
-103 -106 0
-103 -107 0
-103 -108 0
-103 -109 0
-103 -110 0
-103 -111 0
-103 -112 0
-103 -113 0
-103 -114 0
-103 -115 0
-103 -116 0
-103 -117 0
-103 -118 0
-103 -119 0
-103 -120 0
-103 -121 0
-103 -122 0
-103 -123 0
-103 -124 0
-103 -125 0
-104 -105 0
-104 -106 0
-104 -107 0
-104 -108 0
-104 -109 0
-104 -110 0
-104 -111 0
-104 -112 0
-104 -113 0
-104 -114 0
-104 -115 0
-104 -116 0
-104 -117 0
-104 -118 0
-104 -119 0
-104 -120 0
-104 -121 0
-104 -122 0
-104 -123 0
-104 -124 0
-104 -125 0
-105 -106 0
-105 -107 0
-105 -108 0
-105 -109 0
-105 -110 0
-105 -111 0
-105 -112 0
-105 -113 0
-105 -114 0
-105 -115 0
-105 -116 0
-105 -117 0
-105 -118 0
-105 -119 0
-105 -120 0
-105 -121 0
-105 -122 0
-105 -123 0
-105 -124 0
-105 -125 0
-106 -107 0
-106 -108 0
-106 -109 0
-106 -110 0
-106 -111 0
-106 -112 0
-106 -113 0
-106 -114 0
-106 -115 0
-106 -116 0
-106 -117 0
-106 -118 0
-106 -119 0
-106 -120 0
-106 -121 0
-106 -122 0
-106 -123 0
-106 -124 0
-106 -125 0
-107 -108 0
-107 -109 0
-107 -110 0
-107 -111 0
-107 -112 0
-107 -113 0
-107 -114 0
-107 -115 0
-107 -116 0
-107 -117 0
-107 -118 0
-107 -119 0
-107 -120 0
-107 -121 0
-107 -122 0
-107 -123 0
-107 -124 0
-107 -125 0
-108 -109 0
-108 -110 0
-108 -111 0
-108 -112 0
-108 -113 0
-108 -114 0
-108 -115 0
-108 -116 0
-108 -117 0
-108 -118 0
-108 -119 0
-108 -120 0
-108 -121 0
-108 -122 0
-108 -123 0
-108 -124 0
-108 -125 0
-109 -110 0
-109 -111 0
-109 -112 0
-109 -113 0
-109 -114 0
-109 -115 0
-109 -116 0
-109 -117 0
-109 -118 0
-109 -119 0
-109 -120 0
-109 -121 0
-109 -122 0
-109 -123 0
-109 -124 0
-109 -125 0
-110 -111 0
-110 -112 0
-110 -113 0
-110 -114 0
-110 -115 0
-110 -116 0
-110 -117 0
-110 -118 0
-110 -119 0
-110 -120 0
-110 -121 0
-110 -122 0
-110 -123 0
-110 -124 0
-110 -125 0
-111 -112 0
-111 -113 0
-111 -114 0
-111 -115 0
-111 -116 0
-111 -117 0
-111 -118 0
-111 -119 0
-111 -120 0
-111 -121 0
-111 -122 0
-111 -123 0
-111 -124 0
-111 -125 0
-112 -113 0
-112 -114 0
-112 -115 0
-112 -116 0
-112 -117 0
-112 -118 0
-112 -119 0
-112 -120 0
-112 -121 0
-112 -122 0
-112 -123 0
-112 -124 0
-112 -125 0
-113 -114 0
-113 -115 0
-113 -116 0
-113 -117 0
-113 -118 0
-113 -119 0
-113 -120 0
-113 -121 0
-113 -122 0
-113 -123 0
-113 -124 0
-113 -125 0
-114 -115 0
-114 -116 0
-114 -117 0
-114 -118 0
-114 -119 0
-114 -120 0
-114 -121 0
-114 -122 0
-114 -123 0
-114 -124 0
-114 -125 0
-115 -116 0
-115 -117 0
-115 -118 0
-115 -119 0
-115 -120 0
-115 -121 0
-115 -122 0
-115 -123 0
-115 -124 0
-115 -125 0
-116 -117 0
-116 -118 0
-116 -119 0
-116 -120 0
-116 -121 0
-116 -122 0
-116 -123 0
-116 -124 0
-116 -125 0
-117 -118 0
-117 -119 0
-117 -120 0
-117 -121 0
-117 -122 0
-117 -123 0
-117 -124 0
-117 -125 0
-118 -119 0
-118 -120 0
-118 -121 0
-118 -122 0
-118 -123 0
-118 -124 0
-118 -125 0
-119 -120 0
-119 -121 0
-119 -122 0
-119 -123 0
-119 -124 0
-119 -125 0
-120 -121 0
-120 -122 0
-120 -123 0
-120 -124 0
-120 -125 0
-121 -122 0
-121 -123 0
-121 -124 0
-121 -125 0
-122 -123 0
-122 -124 0
-122 -125 0
-123 -124 0
-123 -125 0
-124 -125 0
-126 -127 0
-126 -128 0
-126 -129 0
-126 -130 0
-126 -131 0
-126 -132 0
-126 -133 0
-126 -134 0
-126 -135 0
-126 -136 0
-126 -137 0
-126 -138 0
-126 -139 0
-126 -140 0
-126 -141 0
-126 -142 0
-126 -143 0
-126 -144 0
-126 -145 0
-126 -146 0
-126 -147 0
-126 -148 0
-126 -149 0
-126 -150 0
-127 -128 0
-127 -129 0
-127 -130 0
-127 -131 0
-127 -132 0
-127 -133 0
-127 -134 0
-127 -135 0
-127 -136 0
-127 -137 0
-127 -138 0
-127 -139 0
-127 -140 0
-127 -141 0
-127 -142 0
-127 -143 0
-127 -144 0
-127 -145 0
-127 -146 0
-127 -147 0
-127 -148 0
-127 -149 0
-127 -150 0
-128 -129 0
-128 -130 0
-128 -131 0
-128 -132 0
-128 -133 0
-128 -134 0
-128 -135 0
-128 -136 0
-128 -137 0
-128 -138 0
-128 -139 0
-128 -140 0
-128 -141 0
-128 -142 0
-128 -143 0
-128 -144 0
-128 -145 0
-128 -146 0
-128 -147 0
-128 -148 0
-128 -149 0
-128 -150 0
-129 -130 0
-129 -131 0
-129 -132 0
-129 -133 0
-129 -134 0
-129 -135 0
-129 -136 0
-129 -137 0
-129 -138 0
-129 -139 0
-129 -140 0
-129 -141 0
-129 -142 0
-129 -143 0
-129 -144 0
-129 -145 0
-129 -146 0
-129 -147 0
-129 -148 0
-129 -149 0
-129 -150 0
-130 -131 0
-130 -132 0
-130 -133 0
-130 -134 0
-130 -135 0
-130 -136 0
-130 -137 0
-130 -138 0
-130 -139 0
-130 -140 0
-130 -141 0
-130 -142 0
-130 -143 0
-130 -144 0
-130 -145 0
-130 -146 0
-130 -147 0
-130 -148 0
-130 -149 0
-130 -150 0
-131 -132 0
-131 -133 0
-131 -134 0
-131 -135 0
-131 -136 0
-131 -137 0
-131 -138 0
-131 -139 0
-131 -140 0
-131 -141 0
-131 -142 0
-131 -143 0
-131 -144 0
-131 -145 0
-131 -146 0
-131 -147 0
-131 -148 0
-131 -149 0
-131 -150 0
-132 -133 0
-132 -134 0
-132 -135 0
-132 -136 0
-132 -137 0
-132 -138 0
-132 -139 0
-132 -140 0
-132 -141 0
-132 -142 0
-132 -143 0
-132 -144 0
-132 -145 0
-132 -146 0
-132 -147 0
-132 -148 0
-132 -149 0
-132 -150 0
-133 -134 0
-133 -135 0
-133 -136 0
-133 -137 0
-133 -138 0
-133 -139 0
-133 -140 0
-133 -141 0
-133 -142 0
-133 -143 0
-133 -144 0
-133 -145 0
-133 -146 0
-133 -147 0
-133 -148 0
-133 -149 0
-133 -150 0
-134 -135 0
-134 -136 0
-134 -137 0
-134 -138 0
-134 -139 0
-134 -140 0
-134 -141 0
-134 -142 0
-134 -143 0
-134 -144 0
-134 -145 0
-134 -146 0
-134 -147 0
-134 -148 0
-134 -149 0
-134 -150 0
-135 -136 0
-135 -137 0
-135 -138 0
-135 -139 0
-135 -140 0
-135 -141 0
-135 -142 0
-135 -143 0
-135 -144 0
-135 -145 0
-135 -146 0
-135 -147 0
-135 -148 0
-135 -149 0
-135 -150 0
-136 -137 0
-136 -138 0
-136 -139 0
-136 -140 0
-136 -141 0
-136 -142 0
-136 -143 0
-136 -144 0
-136 -145 0
-136 -146 0
-136 -147 0
-136 -148 0
-136 -149 0
-136 -150 0
-137 -138 0
-137 -139 0
-137 -140 0
-137 -141 0
-137 -142 0
-137 -143 0
-137 -144 0
-137 -145 0
-137 -146 0
-137 -147 0
-137 -148 0
-137 -149 0
-137 -150 0
-138 -139 0
-138 -140 0
-138 -141 0
-138 -142 0
-138 -143 0
-138 -144 0
-138 -145 0
-138 -146 0
-138 -147 0
-138 -148 0
-138 -149 0
-138 -150 0
-139 -140 0
-139 -141 0
-139 -142 0
-139 -143 0
-139 -144 0
-139 -145 0
-139 -146 0
-139 -147 0
-139 -148 0
-139 -149 0
-139 -150 0
-140 -141 0
-140 -142 0
-140 -143 0
-140 -144 0
-140 -145 0
-140 -146 0
-140 -147 0
-140 -148 0
-140 -149 0
-140 -150 0
-141 -142 0
-141 -143 0
-141 -144 0
-141 -145 0
-141 -146 0
-141 -147 0
-141 -148 0
-141 -149 0
-141 -150 0
-142 -143 0
-142 -144 0
-142 -145 0
-142 -146 0
-142 -147 0
-142 -148 0
-142 -149 0
-142 -150 0
-143 -144 0
-143 -145 0
-143 -146 0
-143 -147 0
-143 -148 0
-143 -149 0
-143 -150 0
-144 -145 0
-144 -146 0
-144 -147 0
-144 -148 0
-144 -149 0
-144 -150 0
-145 -146 0
-145 -147 0
-145 -148 0
-145 -149 0
-145 -150 0
-146 -147 0
-146 -148 0
-146 -149 0
-146 -150 0
-147 -148 0
-147 -149 0
-147 -150 0
-148 -149 0
-148 -150 0
-149 -150 0
-151 -152 0
-151 -153 0
-151 -154 0
-151 -155 0
-151 -156 0
-151 -157 0
-151 -158 0
-151 -159 0
-151 -160 0
-151 -161 0
-151 -162 0
-151 -163 0
-151 -164 0
-151 -165 0
-151 -166 0
-151 -167 0
-151 -168 0
-151 -169 0
-151 -170 0
-151 -171 0
-151 -172 0
-151 -173 0
-151 -174 0
-151 -175 0
-152 -153 0
-152 -154 0
-152 -155 0
-152 -156 0
-152 -157 0
-152 -158 0
-152 -159 0
-152 -160 0
-152 -161 0
-152 -162 0
-152 -163 0
-152 -164 0
-152 -165 0
-152 -166 0
-152 -167 0
-152 -168 0
-152 -169 0
-152 -170 0
-152 -171 0
-152 -172 0
-152 -173 0
-152 -174 0
-152 -175 0
-153 -154 0
-153 -155 0
-153 -156 0
-153 -157 0
-153 -158 0
-153 -159 0
-153 -160 0
-153 -161 0
-153 -162 0
-153 -163 0
-153 -164 0
-153 -165 0
-153 -166 0
-153 -167 0
-153 -168 0
-153 -169 0
-153 -170 0
-153 -171 0
-153 -172 0
-153 -173 0
-153 -174 0
-153 -175 0
-154 -155 0
-154 -156 0
-154 -157 0
-154 -158 0
-154 -159 0
-154 -160 0
-154 -161 0
-154 -162 0
-154 -163 0
-154 -164 0
-154 -165 0
-154 -166 0
-154 -167 0
-154 -168 0
-154 -169 0
-154 -170 0
-154 -171 0
-154 -172 0
-154 -173 0
-154 -174 0
-154 -175 0
-155 -156 0
-155 -157 0
-155 -158 0
-155 -159 0
-155 -160 0
-155 -161 0
-155 -162 0
-155 -163 0
-155 -164 0
-155 -165 0
-155 -166 0
-155 -167 0
-155 -168 0
-155 -169 0
-155 -170 0
-155 -171 0
-155 -172 0
-155 -173 0
-155 -174 0
-155 -175 0
-156 -157 0
-156 -158 0
-156 -159 0
-156 -160 0
-156 -161 0
-156 -162 0
-156 -163 0
-156 -164 0
-156 -165 0
-156 -166 0
-156 -167 0
-156 -168 0
-156 -169 0
-156 -170 0
-156 -171 0
-156 -172 0
-156 -173 0
-156 -174 0
-156 -175 0
-157 -158 0
-157 -159 0
-157 -160 0
-157 -161 0
-157 -162 0
-157 -163 0
-157 -164 0
-157 -165 0
-157 -166 0
-157 -167 0
-157 -168 0
-157 -169 0
-157 -170 0
-157 -171 0
-157 -172 0
-157 -173 0
-157 -174 0
-157 -175 0
-158 -159 0
-158 -160 0
-158 -161 0
-158 -162 0
-158 -163 0
-158 -164 0
-158 -165 0
-158 -166 0
-158 -167 0
-158 -168 0
-158 -169 0
-158 -170 0
-158 -171 0
-158 -172 0
-158 -173 0
-158 -174 0
-158 -175 0
-159 -160 0
-159 -161 0
-159 -162 0
-159 -163 0
-159 -164 0
-159 -165 0
-159 -166 0
-159 -167 0
-159 -168 0
-159 -169 0
-159 -170 0
-159 -171 0
-159 -172 0
-159 -173 0
-159 -174 0
-159 -175 0
-160 -161 0
-160 -162 0
-160 -163 0
-160 -164 0
-160 -165 0
-160 -166 0
-160 -167 0
-160 -168 0
-160 -169 0
-160 -170 0
-160 -171 0
-160 -172 0
-160 -173 0
-160 -174 0
-160 -175 0
-161 -162 0
-161 -163 0
-161 -164 0
-161 -165 0
-161 -166 0
-161 -167 0
-161 -168 0
-161 -169 0
-161 -170 0
-161 -171 0
-161 -172 0
-161 -173 0
-161 -174 0
-161 -175 0
-162 -163 0
-162 -164 0
-162 -165 0
-162 -166 0
-162 -167 0
-162 -168 0
-162 -169 0
-162 -170 0
-162 -171 0
-162 -172 0
-162 -173 0
-162 -174 0
-162 -175 0
-163 -164 0
-163 -165 0
-163 -166 0
-163 -167 0
-163 -168 0
-163 -169 0
-163 -170 0
-163 -171 0
-163 -172 0
-163 -173 0
-163 -174 0
-163 -175 0
-164 -165 0
-164 -166 0
-164 -167 0
-164 -168 0
-164 -169 0
-164 -170 0
-164 -171 0
-164 -172 0
-164 -173 0
-164 -174 0
-164 -175 0
-165 -166 0
-165 -167 0
-165 -168 0
-165 -169 0
-165 -170 0
-165 -171 0
-165 -172 0
-165 -173 0
-165 -174 0
-165 -175 0
-166 -167 0
-166 -168 0
-166 -169 0
-166 -170 0
-166 -171 0
-166 -172 0
-166 -173 0
-166 -174 0
-166 -175 0
-167 -168 0
-167 -169 0
-167 -170 0
-167 -171 0
-167 -172 0
-167 -173 0
-167 -174 0
-167 -175 0
-168 -169 0
-168 -170 0
-168 -171 0
-168 -172 0
-168 -173 0
-168 -174 0
-168 -175 0
-169 -170 0
-169 -171 0
-169 -172 0
-169 -173 0
-169 -174 0
-169 -175 0
-170 -171 0
-170 -172 0
-170 -173 0
-170 -174 0
-170 -175 0
-171 -172 0
-171 -173 0
-171 -174 0
-171 -175 0
-172 -173 0
-172 -174 0
-172 -175 0
-173 -174 0
-173 -175 0
-174 -175 0
-176 -177 0
-176 -178 0
-176 -179 0
-176 -180 0
-176 -181 0
-176 -182 0
-176 -183 0
-176 -184 0
-176 -185 0
-176 -186 0
-176 -187 0
-176 -188 0
-176 -189 0
-176 -190 0
-176 -191 0
-176 -192 0
-176 -193 0
-176 -194 0
-176 -195 0
-176 -196 0
-176 -197 0
-176 -198 0
-176 -199 0
-176 -200 0
-177 -178 0
-177 -179 0
-177 -180 0
-177 -181 0
-177 -182 0
-177 -183 0
-177 -184 0
-177 -185 0
-177 -186 0
-177 -187 0
-177 -188 0
-177 -189 0
-177 -190 0
-177 -191 0
-177 -192 0
-177 -193 0
-177 -194 0
-177 -195 0
-177 -196 0
-177 -197 0
-177 -198 0
-177 -199 0
-177 -200 0
-178 -179 0
-178 -180 0
-178 -181 0
-178 -182 0
-178 -183 0
-178 -184 0
-178 -185 0
-178 -186 0
-178 -187 0
-178 -188 0
-178 -189 0
-178 -190 0
-178 -191 0
-178 -192 0
-178 -193 0
-178 -194 0
-178 -195 0
-178 -196 0
-178 -197 0
-178 -198 0
-178 -199 0
-178 -200 0
-179 -180 0
-179 -181 0
-179 -182 0
-179 -183 0
-179 -184 0
-179 -185 0
-179 -186 0
-179 -187 0
-179 -188 0
-179 -189 0
-179 -190 0
-179 -191 0
-179 -192 0
-179 -193 0
-179 -194 0
-179 -195 0
-179 -196 0
-179 -197 0
-179 -198 0
-179 -199 0
-179 -200 0
-180 -181 0
-180 -182 0
-180 -183 0
-180 -184 0
-180 -185 0
-180 -186 0
-180 -187 0
-180 -188 0
-180 -189 0
-180 -190 0
-180 -191 0
-180 -192 0
-180 -193 0
-180 -194 0
-180 -195 0
-180 -196 0
-180 -197 0
-180 -198 0
-180 -199 0
-180 -200 0
-181 -182 0
-181 -183 0
-181 -184 0
-181 -185 0
-181 -186 0
-181 -187 0
-181 -188 0
-181 -189 0
-181 -190 0
-181 -191 0
-181 -192 0
-181 -193 0
-181 -194 0
-181 -195 0
-181 -196 0
-181 -197 0
-181 -198 0
-181 -199 0
-181 -200 0
-182 -183 0
-182 -184 0
-182 -185 0
-182 -186 0
-182 -187 0
-182 -188 0
-182 -189 0
-182 -190 0
-182 -191 0
-182 -192 0
-182 -193 0
-182 -194 0
-182 -195 0
-182 -196 0
-182 -197 0
-182 -198 0
-182 -199 0
-182 -200 0
-183 -184 0
-183 -185 0
-183 -186 0
-183 -187 0
-183 -188 0
-183 -189 0
-183 -190 0
-183 -191 0
-183 -192 0
-183 -193 0
-183 -194 0
-183 -195 0
-183 -196 0
-183 -197 0
-183 -198 0
-183 -199 0
-183 -200 0
-184 -185 0
-184 -186 0
-184 -187 0
-184 -188 0
-184 -189 0
-184 -190 0
-184 -191 0
-184 -192 0
-184 -193 0
-184 -194 0
-184 -195 0
-184 -196 0
-184 -197 0
-184 -198 0
-184 -199 0
-184 -200 0
-185 -186 0
-185 -187 0
-185 -188 0
-185 -189 0
-185 -190 0
-185 -191 0
-185 -192 0
-185 -193 0
-185 -194 0
-185 -195 0
-185 -196 0
-185 -197 0
-185 -198 0
-185 -199 0
-185 -200 0
-186 -187 0
-186 -188 0
-186 -189 0
-186 -190 0
-186 -191 0
-186 -192 0
-186 -193 0
-186 -194 0
-186 -195 0
-186 -196 0
-186 -197 0
-186 -198 0
-186 -199 0
-186 -200 0
-187 -188 0
-187 -189 0
-187 -190 0
-187 -191 0
-187 -192 0
-187 -193 0
-187 -194 0
-187 -195 0
-187 -196 0
-187 -197 0
-187 -198 0
-187 -199 0
-187 -200 0
-188 -189 0
-188 -190 0
-188 -191 0
-188 -192 0
-188 -193 0
-188 -194 0
-188 -195 0
-188 -196 0
-188 -197 0
-188 -198 0
-188 -199 0
-188 -200 0
-189 -190 0
-189 -191 0
-189 -192 0
-189 -193 0
-189 -194 0
-189 -195 0
-189 -196 0
-189 -197 0
-189 -198 0
-189 -199 0
-189 -200 0
-190 -191 0
-190 -192 0
-190 -193 0
-190 -194 0
-190 -195 0
-190 -196 0
-190 -197 0
-190 -198 0
-190 -199 0
-190 -200 0
-191 -192 0
-191 -193 0
-191 -194 0
-191 -195 0
-191 -196 0
-191 -197 0
-191 -198 0
-191 -199 0
-191 -200 0
-192 -193 0
-192 -194 0
-192 -195 0
-192 -196 0
-192 -197 0
-192 -198 0
-192 -199 0
-192 -200 0
-193 -194 0
-193 -195 0
-193 -196 0
-193 -197 0
-193 -198 0
-193 -199 0
-193 -200 0
-194 -195 0
-194 -196 0
-194 -197 0
-194 -198 0
-194 -199 0
-194 -200 0
-195 -196 0
-195 -197 0
-195 -198 0
-195 -199 0
-195 -200 0
-196 -197 0
-196 -198 0
-196 -199 0
-196 -200 0
-197 -198 0
-197 -199 0
-197 -200 0
-198 -199 0
-198 -200 0
-199 -200 0
-201 -202 0
-201 -203 0
-201 -204 0
-201 -205 0
-201 -206 0
-201 -207 0
-201 -208 0
-201 -209 0
-201 -210 0
-201 -211 0
-201 -212 0
-201 -213 0
-201 -214 0
-201 -215 0
-201 -216 0
-201 -217 0
-201 -218 0
-201 -219 0
-201 -220 0
-201 -221 0
-201 -222 0
-201 -223 0
-201 -224 0
-201 -225 0
-202 -203 0
-202 -204 0
-202 -205 0
-202 -206 0
-202 -207 0
-202 -208 0
-202 -209 0
-202 -210 0
-202 -211 0
-202 -212 0
-202 -213 0
-202 -214 0
-202 -215 0
-202 -216 0
-202 -217 0
-202 -218 0
-202 -219 0
-202 -220 0
-202 -221 0
-202 -222 0
-202 -223 0
-202 -224 0
-202 -225 0
-203 -204 0
-203 -205 0
-203 -206 0
-203 -207 0
-203 -208 0
-203 -209 0
-203 -210 0
-203 -211 0
-203 -212 0
-203 -213 0
-203 -214 0
-203 -215 0
-203 -216 0
-203 -217 0
-203 -218 0
-203 -219 0
-203 -220 0
-203 -221 0
-203 -222 0
-203 -223 0
-203 -224 0
-203 -225 0
-204 -205 0
-204 -206 0
-204 -207 0
-204 -208 0
-204 -209 0
-204 -210 0
-204 -211 0
-204 -212 0
-204 -213 0
-204 -214 0
-204 -215 0
-204 -216 0
-204 -217 0
-204 -218 0
-204 -219 0
-204 -220 0
-204 -221 0
-204 -222 0
-204 -223 0
-204 -224 0
-204 -225 0
-205 -206 0
-205 -207 0
-205 -208 0
-205 -209 0
-205 -210 0
-205 -211 0
-205 -212 0
-205 -213 0
-205 -214 0
-205 -215 0
-205 -216 0
-205 -217 0
-205 -218 0
-205 -219 0
-205 -220 0
-205 -221 0
-205 -222 0
-205 -223 0
-205 -224 0
-205 -225 0
-206 -207 0
-206 -208 0
-206 -209 0
-206 -210 0
-206 -211 0
-206 -212 0
-206 -213 0
-206 -214 0
-206 -215 0
-206 -216 0
-206 -217 0
-206 -218 0
-206 -219 0
-206 -220 0
-206 -221 0
-206 -222 0
-206 -223 0
-206 -224 0
-206 -225 0
-207 -208 0
-207 -209 0
-207 -210 0
-207 -211 0
-207 -212 0
-207 -213 0
-207 -214 0
-207 -215 0
-207 -216 0
-207 -217 0
-207 -218 0
-207 -219 0
-207 -220 0
-207 -221 0
-207 -222 0
-207 -223 0
-207 -224 0
-207 -225 0
-208 -209 0
-208 -210 0
-208 -211 0
-208 -212 0
-208 -213 0
-208 -214 0
-208 -215 0
-208 -216 0
-208 -217 0
-208 -218 0
-208 -219 0
-208 -220 0
-208 -221 0
-208 -222 0
-208 -223 0
-208 -224 0
-208 -225 0
-209 -210 0
-209 -211 0
-209 -212 0
-209 -213 0
-209 -214 0
-209 -215 0
-209 -216 0
-209 -217 0
-209 -218 0
-209 -219 0
-209 -220 0
-209 -221 0
-209 -222 0
-209 -223 0
-209 -224 0
-209 -225 0
-210 -211 0
-210 -212 0
-210 -213 0
-210 -214 0
-210 -215 0
-210 -216 0
-210 -217 0
-210 -218 0
-210 -219 0
-210 -220 0
-210 -221 0
-210 -222 0
-210 -223 0
-210 -224 0
-210 -225 0
-211 -212 0
-211 -213 0
-211 -214 0
-211 -215 0
-211 -216 0
-211 -217 0
-211 -218 0
-211 -219 0
-211 -220 0
-211 -221 0
-211 -222 0
-211 -223 0
-211 -224 0
-211 -225 0
-212 -213 0
-212 -214 0
-212 -215 0
-212 -216 0
-212 -217 0
-212 -218 0
-212 -219 0
-212 -220 0
-212 -221 0
-212 -222 0
-212 -223 0
-212 -224 0
-212 -225 0
-213 -214 0
-213 -215 0
-213 -216 0
-213 -217 0
-213 -218 0
-213 -219 0
-213 -220 0
-213 -221 0
-213 -222 0
-213 -223 0
-213 -224 0
-213 -225 0
-214 -215 0
-214 -216 0
-214 -217 0
-214 -218 0
-214 -219 0
-214 -220 0
-214 -221 0
-214 -222 0
-214 -223 0
-214 -224 0
-214 -225 0
-215 -216 0
-215 -217 0
-215 -218 0
-215 -219 0
-215 -220 0
-215 -221 0
-215 -222 0
-215 -223 0
-215 -224 0
-215 -225 0
-216 -217 0
-216 -218 0
-216 -219 0
-216 -220 0
-216 -221 0
-216 -222 0
-216 -223 0
-216 -224 0
-216 -225 0
-217 -218 0
-217 -219 0
-217 -220 0
-217 -221 0
-217 -222 0
-217 -223 0
-217 -224 0
-217 -225 0
-218 -219 0
-218 -220 0
-218 -221 0
-218 -222 0
-218 -223 0
-218 -224 0
-218 -225 0
-219 -220 0
-219 -221 0
-219 -222 0
-219 -223 0
-219 -224 0
-219 -225 0
-220 -221 0
-220 -222 0
-220 -223 0
-220 -224 0
-220 -225 0
-221 -222 0
-221 -223 0
-221 -224 0
-221 -225 0
-222 -223 0
-222 -224 0
-222 -225 0
-223 -224 0
-223 -225 0
-224 -225 0
-226 -227 0
-226 -228 0
-226 -229 0
-226 -230 0
-226 -231 0
-226 -232 0
-226 -233 0
-226 -234 0
-226 -235 0
-226 -236 0
-226 -237 0
-226 -238 0
-226 -239 0
-226 -240 0
-226 -241 0
-226 -242 0
-226 -243 0
-226 -244 0
-226 -245 0
-226 -246 0
-226 -247 0
-226 -248 0
-226 -249 0
-226 -250 0
-227 -228 0
-227 -229 0
-227 -230 0
-227 -231 0
-227 -232 0
-227 -233 0
-227 -234 0
-227 -235 0
-227 -236 0
-227 -237 0
-227 -238 0
-227 -239 0
-227 -240 0
-227 -241 0
-227 -242 0
-227 -243 0
-227 -244 0
-227 -245 0
-227 -246 0
-227 -247 0
-227 -248 0
-227 -249 0
-227 -250 0
-228 -229 0
-228 -230 0
-228 -231 0
-228 -232 0
-228 -233 0
-228 -234 0
-228 -235 0
-228 -236 0
-228 -237 0
-228 -238 0
-228 -239 0
-228 -240 0
-228 -241 0
-228 -242 0
-228 -243 0
-228 -244 0
-228 -245 0
-228 -246 0
-228 -247 0
-228 -248 0
-228 -249 0
-228 -250 0
-229 -230 0
-229 -231 0
-229 -232 0
-229 -233 0
-229 -234 0
-229 -235 0
-229 -236 0
-229 -237 0
-229 -238 0
-229 -239 0
-229 -240 0
-229 -241 0
-229 -242 0
-229 -243 0
-229 -244 0
-229 -245 0
-229 -246 0
-229 -247 0
-229 -248 0
-229 -249 0
-229 -250 0
-230 -231 0
-230 -232 0
-230 -233 0
-230 -234 0
-230 -235 0
-230 -236 0
-230 -237 0
-230 -238 0
-230 -239 0
-230 -240 0
-230 -241 0
-230 -242 0
-230 -243 0
-230 -244 0
-230 -245 0
-230 -246 0
-230 -247 0
-230 -248 0
-230 -249 0
-230 -250 0
-231 -232 0
-231 -233 0
-231 -234 0
-231 -235 0
-231 -236 0
-231 -237 0
-231 -238 0
-231 -239 0
-231 -240 0
-231 -241 0
-231 -242 0
-231 -243 0
-231 -244 0
-231 -245 0
-231 -246 0
-231 -247 0
-231 -248 0
-231 -249 0
-231 -250 0
-232 -233 0
-232 -234 0
-232 -235 0
-232 -236 0
-232 -237 0
-232 -238 0
-232 -239 0
-232 -240 0
-232 -241 0
-232 -242 0
-232 -243 0
-232 -244 0
-232 -245 0
-232 -246 0
-232 -247 0
-232 -248 0
-232 -249 0
-232 -250 0
-233 -234 0
-233 -235 0
-233 -236 0
-233 -237 0
-233 -238 0
-233 -239 0
-233 -240 0
-233 -241 0
-233 -242 0
-233 -243 0
-233 -244 0
-233 -245 0
-233 -246 0
-233 -247 0
-233 -248 0
-233 -249 0
-233 -250 0
-234 -235 0
-234 -236 0
-234 -237 0
-234 -238 0
-234 -239 0
-234 -240 0
-234 -241 0
-234 -242 0
-234 -243 0
-234 -244 0
-234 -245 0
-234 -246 0
-234 -247 0
-234 -248 0
-234 -249 0
-234 -250 0
-235 -236 0
-235 -237 0
-235 -238 0
-235 -239 0
-235 -240 0
-235 -241 0
-235 -242 0
-235 -243 0
-235 -244 0
-235 -245 0
-235 -246 0
-235 -247 0
-235 -248 0
-235 -249 0
-235 -250 0
-236 -237 0
-236 -238 0
-236 -239 0
-236 -240 0
-236 -241 0
-236 -242 0
-236 -243 0
-236 -244 0
-236 -245 0
-236 -246 0
-236 -247 0
-236 -248 0
-236 -249 0
-236 -250 0
-237 -238 0
-237 -239 0
-237 -240 0
-237 -241 0
-237 -242 0
-237 -243 0
-237 -244 0
-237 -245 0
-237 -246 0
-237 -247 0
-237 -248 0
-237 -249 0
-237 -250 0
-238 -239 0
-238 -240 0
-238 -241 0
-238 -242 0
-238 -243 0
-238 -244 0
-238 -245 0
-238 -246 0
-238 -247 0
-238 -248 0
-238 -249 0
-238 -250 0
-239 -240 0
-239 -241 0
-239 -242 0
-239 -243 0
-239 -244 0
-239 -245 0
-239 -246 0
-239 -247 0
-239 -248 0
-239 -249 0
-239 -250 0
-240 -241 0
-240 -242 0
-240 -243 0
-240 -244 0
-240 -245 0
-240 -246 0
-240 -247 0
-240 -248 0
-240 -249 0
-240 -250 0
-241 -242 0
-241 -243 0
-241 -244 0
-241 -245 0
-241 -246 0
-241 -247 0
-241 -248 0
-241 -249 0
-241 -250 0
-242 -243 0
-242 -244 0
-242 -245 0
-242 -246 0
-242 -247 0
-242 -248 0
-242 -249 0
-242 -250 0
-243 -244 0
-243 -245 0
-243 -246 0
-243 -247 0
-243 -248 0
-243 -249 0
-243 -250 0
-244 -245 0
-244 -246 0
-244 -247 0
-244 -248 0
-244 -249 0
-244 -250 0
-245 -246 0
-245 -247 0
-245 -248 0
-245 -249 0
-245 -250 0
-246 -247 0
-246 -248 0
-246 -249 0
-246 -250 0
-247 -248 0
-247 -249 0
-247 -250 0
-248 -249 0
-248 -250 0
-249 -250 0
-251 -252 0
-251 -253 0
-251 -254 0
-251 -255 0
-251 -256 0
-251 -257 0
-251 -258 0
-251 -259 0
-251 -260 0
-251 -261 0
-251 -262 0
-251 -263 0
-251 -264 0
-251 -265 0
-251 -266 0
-251 -267 0
-251 -268 0
-251 -269 0
-251 -270 0
-251 -271 0
-251 -272 0
-251 -273 0
-251 -274 0
-251 -275 0
-252 -253 0
-252 -254 0
-252 -255 0
-252 -256 0
-252 -257 0
-252 -258 0
-252 -259 0
-252 -260 0
-252 -261 0
-252 -262 0
-252 -263 0
-252 -264 0
-252 -265 0
-252 -266 0
-252 -267 0
-252 -268 0
-252 -269 0
-252 -270 0
-252 -271 0
-252 -272 0
-252 -273 0
-252 -274 0
-252 -275 0
-253 -254 0
-253 -255 0
-253 -256 0
-253 -257 0
-253 -258 0
-253 -259 0
-253 -260 0
-253 -261 0
-253 -262 0
-253 -263 0
-253 -264 0
-253 -265 0
-253 -266 0
-253 -267 0
-253 -268 0
-253 -269 0
-253 -270 0
-253 -271 0
-253 -272 0
-253 -273 0
-253 -274 0
-253 -275 0
-254 -255 0
-254 -256 0
-254 -257 0
-254 -258 0
-254 -259 0
-254 -260 0
-254 -261 0
-254 -262 0
-254 -263 0
-254 -264 0
-254 -265 0
-254 -266 0
-254 -267 0
-254 -268 0
-254 -269 0
-254 -270 0
-254 -271 0
-254 -272 0
-254 -273 0
-254 -274 0
-254 -275 0
-255 -256 0
-255 -257 0
-255 -258 0
-255 -259 0
-255 -260 0
-255 -261 0
-255 -262 0
-255 -263 0
-255 -264 0
-255 -265 0
-255 -266 0
-255 -267 0
-255 -268 0
-255 -269 0
-255 -270 0
-255 -271 0
-255 -272 0
-255 -273 0
-255 -274 0
-255 -275 0
-256 -257 0
-256 -258 0
-256 -259 0
-256 -260 0
-256 -261 0
-256 -262 0
-256 -263 0
-256 -264 0
-256 -265 0
-256 -266 0
-256 -267 0
-256 -268 0
-256 -269 0
-256 -270 0
-256 -271 0
-256 -272 0
-256 -273 0
-256 -274 0
-256 -275 0
-257 -258 0
-257 -259 0
-257 -260 0
-257 -261 0
-257 -262 0
-257 -263 0
-257 -264 0
-257 -265 0
-257 -266 0
-257 -267 0
-257 -268 0
-257 -269 0
-257 -270 0
-257 -271 0
-257 -272 0
-257 -273 0
-257 -274 0
-257 -275 0
-258 -259 0
-258 -260 0
-258 -261 0
-258 -262 0
-258 -263 0
-258 -264 0
-258 -265 0
-258 -266 0
-258 -267 0
-258 -268 0
-258 -269 0
-258 -270 0
-258 -271 0
-258 -272 0
-258 -273 0
-258 -274 0
-258 -275 0
-259 -260 0
-259 -261 0
-259 -262 0
-259 -263 0
-259 -264 0
-259 -265 0
-259 -266 0
-259 -267 0
-259 -268 0
-259 -269 0
-259 -270 0
-259 -271 0
-259 -272 0
-259 -273 0
-259 -274 0
-259 -275 0
-260 -261 0
-260 -262 0
-260 -263 0
-260 -264 0
-260 -265 0
-260 -266 0
-260 -267 0
-260 -268 0
-260 -269 0
-260 -270 0
-260 -271 0
-260 -272 0
-260 -273 0
-260 -274 0
-260 -275 0
-261 -262 0
-261 -263 0
-261 -264 0
-261 -265 0
-261 -266 0
-261 -267 0
-261 -268 0
-261 -269 0
-261 -270 0
-261 -271 0
-261 -272 0
-261 -273 0
-261 -274 0
-261 -275 0
-262 -263 0
-262 -264 0
-262 -265 0
-262 -266 0
-262 -267 0
-262 -268 0
-262 -269 0
-262 -270 0
-262 -271 0
-262 -272 0
-262 -273 0
-262 -274 0
-262 -275 0
-263 -264 0
-263 -265 0
-263 -266 0
-263 -267 0
-263 -268 0
-263 -269 0
-263 -270 0
-263 -271 0
-263 -272 0
-263 -273 0
-263 -274 0
-263 -275 0
-264 -265 0
-264 -266 0
-264 -267 0
-264 -268 0
-264 -269 0
-264 -270 0
-264 -271 0
-264 -272 0
-264 -273 0
-264 -274 0
-264 -275 0
-265 -266 0
-265 -267 0
-265 -268 0
-265 -269 0
-265 -270 0
-265 -271 0
-265 -272 0
-265 -273 0
-265 -274 0
-265 -275 0
-266 -267 0
-266 -268 0
-266 -269 0
-266 -270 0
-266 -271 0
-266 -272 0
-266 -273 0
-266 -274 0
-266 -275 0
-267 -268 0
-267 -269 0
-267 -270 0
-267 -271 0
-267 -272 0
-267 -273 0
-267 -274 0
-267 -275 0
-268 -269 0
-268 -270 0
-268 -271 0
-268 -272 0
-268 -273 0
-268 -274 0
-268 -275 0
-269 -270 0
-269 -271 0
-269 -272 0
-269 -273 0
-269 -274 0
-269 -275 0
-270 -271 0
-270 -272 0
-270 -273 0
-270 -274 0
-270 -275 0
-271 -272 0
-271 -273 0
-271 -274 0
-271 -275 0
-272 -273 0
-272 -274 0
-272 -275 0
-273 -274 0
-273 -275 0
-274 -275 0
-276 -277 0
-276 -278 0
-276 -279 0
-276 -280 0
-276 -281 0
-276 -282 0
-276 -283 0
-276 -284 0
-276 -285 0
-276 -286 0
-276 -287 0
-276 -288 0
-276 -289 0
-276 -290 0
-276 -291 0
-276 -292 0
-276 -293 0
-276 -294 0
-276 -295 0
-276 -296 0
-276 -297 0
-276 -298 0
-276 -299 0
-276 -300 0
-277 -278 0
-277 -279 0
-277 -280 0
-277 -281 0
-277 -282 0
-277 -283 0
-277 -284 0
-277 -285 0
-277 -286 0
-277 -287 0
-277 -288 0
-277 -289 0
-277 -290 0
-277 -291 0
-277 -292 0
-277 -293 0
-277 -294 0
-277 -295 0
-277 -296 0
-277 -297 0
-277 -298 0
-277 -299 0
-277 -300 0
-278 -279 0
-278 -280 0
-278 -281 0
-278 -282 0
-278 -283 0
-278 -284 0
-278 -285 0
-278 -286 0
-278 -287 0
-278 -288 0
-278 -289 0
-278 -290 0
-278 -291 0
-278 -292 0
-278 -293 0
-278 -294 0
-278 -295 0
-278 -296 0
-278 -297 0
-278 -298 0
-278 -299 0
-278 -300 0
-279 -280 0
-279 -281 0
-279 -282 0
-279 -283 0
-279 -284 0
-279 -285 0
-279 -286 0
-279 -287 0
-279 -288 0
-279 -289 0
-279 -290 0
-279 -291 0
-279 -292 0
-279 -293 0
-279 -294 0
-279 -295 0
-279 -296 0
-279 -297 0
-279 -298 0
-279 -299 0
-279 -300 0
-280 -281 0
-280 -282 0
-280 -283 0
-280 -284 0
-280 -285 0
-280 -286 0
-280 -287 0
-280 -288 0
-280 -289 0
-280 -290 0
-280 -291 0
-280 -292 0
-280 -293 0
-280 -294 0
-280 -295 0
-280 -296 0
-280 -297 0
-280 -298 0
-280 -299 0
-280 -300 0
-281 -282 0
-281 -283 0
-281 -284 0
-281 -285 0
-281 -286 0
-281 -287 0
-281 -288 0
-281 -289 0
-281 -290 0
-281 -291 0
-281 -292 0
-281 -293 0
-281 -294 0
-281 -295 0
-281 -296 0
-281 -297 0
-281 -298 0
-281 -299 0
-281 -300 0
-282 -283 0
-282 -284 0
-282 -285 0
-282 -286 0
-282 -287 0
-282 -288 0
-282 -289 0
-282 -290 0
-282 -291 0
-282 -292 0
-282 -293 0
-282 -294 0
-282 -295 0
-282 -296 0
-282 -297 0
-282 -298 0
-282 -299 0
-282 -300 0
-283 -284 0
-283 -285 0
-283 -286 0
-283 -287 0
-283 -288 0
-283 -289 0
-283 -290 0
-283 -291 0
-283 -292 0
-283 -293 0
-283 -294 0
-283 -295 0
-283 -296 0
-283 -297 0
-283 -298 0
-283 -299 0
-283 -300 0
-284 -285 0
-284 -286 0
-284 -287 0
-284 -288 0
-284 -289 0
-284 -290 0
-284 -291 0
-284 -292 0
-284 -293 0
-284 -294 0
-284 -295 0
-284 -296 0
-284 -297 0
-284 -298 0
-284 -299 0
-284 -300 0
-285 -286 0
-285 -287 0
-285 -288 0
-285 -289 0
-285 -290 0
-285 -291 0
-285 -292 0
-285 -293 0
-285 -294 0
-285 -295 0
-285 -296 0
-285 -297 0
-285 -298 0
-285 -299 0
-285 -300 0
-286 -287 0
-286 -288 0
-286 -289 0
-286 -290 0
-286 -291 0
-286 -292 0
-286 -293 0
-286 -294 0
-286 -295 0
-286 -296 0
-286 -297 0
-286 -298 0
-286 -299 0
-286 -300 0
-287 -288 0
-287 -289 0
-287 -290 0
-287 -291 0
-287 -292 0
-287 -293 0
-287 -294 0
-287 -295 0
-287 -296 0
-287 -297 0
-287 -298 0
-287 -299 0
-287 -300 0
-288 -289 0
-288 -290 0
-288 -291 0
-288 -292 0
-288 -293 0
-288 -294 0
-288 -295 0
-288 -296 0
-288 -297 0
-288 -298 0
-288 -299 0
-288 -300 0
-289 -290 0
-289 -291 0
-289 -292 0
-289 -293 0
-289 -294 0
-289 -295 0
-289 -296 0
-289 -297 0
-289 -298 0
-289 -299 0
-289 -300 0
-290 -291 0
-290 -292 0
-290 -293 0
-290 -294 0
-290 -295 0
-290 -296 0
-290 -297 0
-290 -298 0
-290 -299 0
-290 -300 0
-291 -292 0
-291 -293 0
-291 -294 0
-291 -295 0
-291 -296 0
-291 -297 0
-291 -298 0
-291 -299 0
-291 -300 0
-292 -293 0
-292 -294 0
-292 -295 0
-292 -296 0
-292 -297 0
-292 -298 0
-292 -299 0
-292 -300 0
-293 -294 0
-293 -295 0
-293 -296 0
-293 -297 0
-293 -298 0
-293 -299 0
-293 -300 0
-294 -295 0
-294 -296 0
-294 -297 0
-294 -298 0
-294 -299 0
-294 -300 0
-295 -296 0
-295 -297 0
-295 -298 0
-295 -299 0
-295 -300 0
-296 -297 0
-296 -298 0
-296 -299 0
-296 -300 0
-297 -298 0
-297 -299 0
-297 -300 0
-298 -299 0
-298 -300 0
-299 -300 0
-301 -302 0
-301 -303 0
-301 -304 0
-301 -305 0
-301 -306 0
-301 -307 0
-301 -308 0
-301 -309 0
-301 -310 0
-301 -311 0
-301 -312 0
-301 -313 0
-301 -314 0
-301 -315 0
-301 -316 0
-301 -317 0
-301 -318 0
-301 -319 0
-301 -320 0
-301 -321 0
-301 -322 0
-301 -323 0
-301 -324 0
-301 -325 0
-302 -303 0
-302 -304 0
-302 -305 0
-302 -306 0
-302 -307 0
-302 -308 0
-302 -309 0
-302 -310 0
-302 -311 0
-302 -312 0
-302 -313 0
-302 -314 0
-302 -315 0
-302 -316 0
-302 -317 0
-302 -318 0
-302 -319 0
-302 -320 0
-302 -321 0
-302 -322 0
-302 -323 0
-302 -324 0
-302 -325 0
-303 -304 0
-303 -305 0
-303 -306 0
-303 -307 0
-303 -308 0
-303 -309 0
-303 -310 0
-303 -311 0
-303 -312 0
-303 -313 0
-303 -314 0
-303 -315 0
-303 -316 0
-303 -317 0
-303 -318 0
-303 -319 0
-303 -320 0
-303 -321 0
-303 -322 0
-303 -323 0
-303 -324 0
-303 -325 0
-304 -305 0
-304 -306 0
-304 -307 0
-304 -308 0
-304 -309 0
-304 -310 0
-304 -311 0
-304 -312 0
-304 -313 0
-304 -314 0
-304 -315 0
-304 -316 0
-304 -317 0
-304 -318 0
-304 -319 0
-304 -320 0
-304 -321 0
-304 -322 0
-304 -323 0
-304 -324 0
-304 -325 0
-305 -306 0
-305 -307 0
-305 -308 0
-305 -309 0
-305 -310 0
-305 -311 0
-305 -312 0
-305 -313 0
-305 -314 0
-305 -315 0
-305 -316 0
-305 -317 0
-305 -318 0
-305 -319 0
-305 -320 0
-305 -321 0
-305 -322 0
-305 -323 0
-305 -324 0
-305 -325 0
-306 -307 0
-306 -308 0
-306 -309 0
-306 -310 0
-306 -311 0
-306 -312 0
-306 -313 0
-306 -314 0
-306 -315 0
-306 -316 0
-306 -317 0
-306 -318 0
-306 -319 0
-306 -320 0
-306 -321 0
-306 -322 0
-306 -323 0
-306 -324 0
-306 -325 0
-307 -308 0
-307 -309 0
-307 -310 0
-307 -311 0
-307 -312 0
-307 -313 0
-307 -314 0
-307 -315 0
-307 -316 0
-307 -317 0
-307 -318 0
-307 -319 0
-307 -320 0
-307 -321 0
-307 -322 0
-307 -323 0
-307 -324 0
-307 -325 0
-308 -309 0
-308 -310 0
-308 -311 0
-308 -312 0
-308 -313 0
-308 -314 0
-308 -315 0
-308 -316 0
-308 -317 0
-308 -318 0
-308 -319 0
-308 -320 0
-308 -321 0
-308 -322 0
-308 -323 0
-308 -324 0
-308 -325 0
-309 -310 0
-309 -311 0
-309 -312 0
-309 -313 0
-309 -314 0
-309 -315 0
-309 -316 0
-309 -317 0
-309 -318 0
-309 -319 0
-309 -320 0
-309 -321 0
-309 -322 0
-309 -323 0
-309 -324 0
-309 -325 0
-310 -311 0
-310 -312 0
-310 -313 0
-310 -314 0
-310 -315 0
-310 -316 0
-310 -317 0
-310 -318 0
-310 -319 0
-310 -320 0
-310 -321 0
-310 -322 0
-310 -323 0
-310 -324 0
-310 -325 0
-311 -312 0
-311 -313 0
-311 -314 0
-311 -315 0
-311 -316 0
-311 -317 0
-311 -318 0
-311 -319 0
-311 -320 0
-311 -321 0
-311 -322 0
-311 -323 0
-311 -324 0
-311 -325 0
-312 -313 0
-312 -314 0
-312 -315 0
-312 -316 0
-312 -317 0
-312 -318 0
-312 -319 0
-312 -320 0
-312 -321 0
-312 -322 0
-312 -323 0
-312 -324 0
-312 -325 0
-313 -314 0
-313 -315 0
-313 -316 0
-313 -317 0
-313 -318 0
-313 -319 0
-313 -320 0
-313 -321 0
-313 -322 0
-313 -323 0
-313 -324 0
-313 -325 0
-314 -315 0
-314 -316 0
-314 -317 0
-314 -318 0
-314 -319 0
-314 -320 0
-314 -321 0
-314 -322 0
-314 -323 0
-314 -324 0
-314 -325 0
-315 -316 0
-315 -317 0
-315 -318 0
-315 -319 0
-315 -320 0
-315 -321 0
-315 -322 0
-315 -323 0
-315 -324 0
-315 -325 0
-316 -317 0
-316 -318 0
-316 -319 0
-316 -320 0
-316 -321 0
-316 -322 0
-316 -323 0
-316 -324 0
-316 -325 0
-317 -318 0
-317 -319 0
-317 -320 0
-317 -321 0
-317 -322 0
-317 -323 0
-317 -324 0
-317 -325 0
-318 -319 0
-318 -320 0
-318 -321 0
-318 -322 0
-318 -323 0
-318 -324 0
-318 -325 0
-319 -320 0
-319 -321 0
-319 -322 0
-319 -323 0
-319 -324 0
-319 -325 0
-320 -321 0
-320 -322 0
-320 -323 0
-320 -324 0
-320 -325 0
-321 -322 0
-321 -323 0
-321 -324 0
-321 -325 0
-322 -323 0
-322 -324 0
-322 -325 0
-323 -324 0
-323 -325 0
-324 -325 0
-326 -327 0
-326 -328 0
-326 -329 0
-326 -330 0
-326 -331 0
-326 -332 0
-326 -333 0
-326 -334 0
-326 -335 0
-326 -336 0
-326 -337 0
-326 -338 0
-326 -339 0
-326 -340 0
-326 -341 0
-326 -342 0
-326 -343 0
-326 -344 0
-326 -345 0
-326 -346 0
-326 -347 0
-326 -348 0
-326 -349 0
-326 -350 0
-327 -328 0
-327 -329 0
-327 -330 0
-327 -331 0
-327 -332 0
-327 -333 0
-327 -334 0
-327 -335 0
-327 -336 0
-327 -337 0
-327 -338 0
-327 -339 0
-327 -340 0
-327 -341 0
-327 -342 0
-327 -343 0
-327 -344 0
-327 -345 0
-327 -346 0
-327 -347 0
-327 -348 0
-327 -349 0
-327 -350 0
-328 -329 0
-328 -330 0
-328 -331 0
-328 -332 0
-328 -333 0
-328 -334 0
-328 -335 0
-328 -336 0
-328 -337 0
-328 -338 0
-328 -339 0
-328 -340 0
-328 -341 0
-328 -342 0
-328 -343 0
-328 -344 0
-328 -345 0
-328 -346 0
-328 -347 0
-328 -348 0
-328 -349 0
-328 -350 0
-329 -330 0
-329 -331 0
-329 -332 0
-329 -333 0
-329 -334 0
-329 -335 0
-329 -336 0
-329 -337 0
-329 -338 0
-329 -339 0
-329 -340 0
-329 -341 0
-329 -342 0
-329 -343 0
-329 -344 0
-329 -345 0
-329 -346 0
-329 -347 0
-329 -348 0
-329 -349 0
-329 -350 0
-330 -331 0
-330 -332 0
-330 -333 0
-330 -334 0
-330 -335 0
-330 -336 0
-330 -337 0
-330 -338 0
-330 -339 0
-330 -340 0
-330 -341 0
-330 -342 0
-330 -343 0
-330 -344 0
-330 -345 0
-330 -346 0
-330 -347 0
-330 -348 0
-330 -349 0
-330 -350 0
-331 -332 0
-331 -333 0
-331 -334 0
-331 -335 0
-331 -336 0
-331 -337 0
-331 -338 0
-331 -339 0
-331 -340 0
-331 -341 0
-331 -342 0
-331 -343 0
-331 -344 0
-331 -345 0
-331 -346 0
-331 -347 0
-331 -348 0
-331 -349 0
-331 -350 0
-332 -333 0
-332 -334 0
-332 -335 0
-332 -336 0
-332 -337 0
-332 -338 0
-332 -339 0
-332 -340 0
-332 -341 0
-332 -342 0
-332 -343 0
-332 -344 0
-332 -345 0
-332 -346 0
-332 -347 0
-332 -348 0
-332 -349 0
-332 -350 0
-333 -334 0
-333 -335 0
-333 -336 0
-333 -337 0
-333 -338 0
-333 -339 0
-333 -340 0
-333 -341 0
-333 -342 0
-333 -343 0
-333 -344 0
-333 -345 0
-333 -346 0
-333 -347 0
-333 -348 0
-333 -349 0
-333 -350 0
-334 -335 0
-334 -336 0
-334 -337 0
-334 -338 0
-334 -339 0
-334 -340 0
-334 -341 0
-334 -342 0
-334 -343 0
-334 -344 0
-334 -345 0
-334 -346 0
-334 -347 0
-334 -348 0
-334 -349 0
-334 -350 0
-335 -336 0
-335 -337 0
-335 -338 0
-335 -339 0
-335 -340 0
-335 -341 0
-335 -342 0
-335 -343 0
-335 -344 0
-335 -345 0
-335 -346 0
-335 -347 0
-335 -348 0
-335 -349 0
-335 -350 0
-336 -337 0
-336 -338 0
-336 -339 0
-336 -340 0
-336 -341 0
-336 -342 0
-336 -343 0
-336 -344 0
-336 -345 0
-336 -346 0
-336 -347 0
-336 -348 0
-336 -349 0
-336 -350 0
-337 -338 0
-337 -339 0
-337 -340 0
-337 -341 0
-337 -342 0
-337 -343 0
-337 -344 0
-337 -345 0
-337 -346 0
-337 -347 0
-337 -348 0
-337 -349 0
-337 -350 0
-338 -339 0
-338 -340 0
-338 -341 0
-338 -342 0
-338 -343 0
-338 -344 0
-338 -345 0
-338 -346 0
-338 -347 0
-338 -348 0
-338 -349 0
-338 -350 0
-339 -340 0
-339 -341 0
-339 -342 0
-339 -343 0
-339 -344 0
-339 -345 0
-339 -346 0
-339 -347 0
-339 -348 0
-339 -349 0
-339 -350 0
-340 -341 0
-340 -342 0
-340 -343 0
-340 -344 0
-340 -345 0
-340 -346 0
-340 -347 0
-340 -348 0
-340 -349 0
-340 -350 0
-341 -342 0
-341 -343 0
-341 -344 0
-341 -345 0
-341 -346 0
-341 -347 0
-341 -348 0
-341 -349 0
-341 -350 0
-342 -343 0
-342 -344 0
-342 -345 0
-342 -346 0
-342 -347 0
-342 -348 0
-342 -349 0
-342 -350 0
-343 -344 0
-343 -345 0
-343 -346 0
-343 -347 0
-343 -348 0
-343 -349 0
-343 -350 0
-344 -345 0
-344 -346 0
-344 -347 0
-344 -348 0
-344 -349 0
-344 -350 0
-345 -346 0
-345 -347 0
-345 -348 0
-345 -349 0
-345 -350 0
-346 -347 0
-346 -348 0
-346 -349 0
-346 -350 0
-347 -348 0
-347 -349 0
-347 -350 0
-348 -349 0
-348 -350 0
-349 -350 0
-351 -352 0
-351 -353 0
-351 -354 0
-351 -355 0
-351 -356 0
-351 -357 0
-351 -358 0
-351 -359 0
-351 -360 0
-351 -361 0
-351 -362 0
-351 -363 0
-351 -364 0
-351 -365 0
-351 -366 0
-351 -367 0
-351 -368 0
-351 -369 0
-351 -370 0
-351 -371 0
-351 -372 0
-351 -373 0
-351 -374 0
-351 -375 0
-352 -353 0
-352 -354 0
-352 -355 0
-352 -356 0
-352 -357 0
-352 -358 0
-352 -359 0
-352 -360 0
-352 -361 0
-352 -362 0
-352 -363 0
-352 -364 0
-352 -365 0
-352 -366 0
-352 -367 0
-352 -368 0
-352 -369 0
-352 -370 0
-352 -371 0
-352 -372 0
-352 -373 0
-352 -374 0
-352 -375 0
-353 -354 0
-353 -355 0
-353 -356 0
-353 -357 0
-353 -358 0
-353 -359 0
-353 -360 0
-353 -361 0
-353 -362 0
-353 -363 0
-353 -364 0
-353 -365 0
-353 -366 0
-353 -367 0
-353 -368 0
-353 -369 0
-353 -370 0
-353 -371 0
-353 -372 0
-353 -373 0
-353 -374 0
-353 -375 0
-354 -355 0
-354 -356 0
-354 -357 0
-354 -358 0
-354 -359 0
-354 -360 0
-354 -361 0
-354 -362 0
-354 -363 0
-354 -364 0
-354 -365 0
-354 -366 0
-354 -367 0
-354 -368 0
-354 -369 0
-354 -370 0
-354 -371 0
-354 -372 0
-354 -373 0
-354 -374 0
-354 -375 0
-355 -356 0
-355 -357 0
-355 -358 0
-355 -359 0
-355 -360 0
-355 -361 0
-355 -362 0
-355 -363 0
-355 -364 0
-355 -365 0
-355 -366 0
-355 -367 0
-355 -368 0
-355 -369 0
-355 -370 0
-355 -371 0
-355 -372 0
-355 -373 0
-355 -374 0
-355 -375 0
-356 -357 0
-356 -358 0
-356 -359 0
-356 -360 0
-356 -361 0
-356 -362 0
-356 -363 0
-356 -364 0
-356 -365 0
-356 -366 0
-356 -367 0
-356 -368 0
-356 -369 0
-356 -370 0
-356 -371 0
-356 -372 0
-356 -373 0
-356 -374 0
-356 -375 0
-357 -358 0
-357 -359 0
-357 -360 0
-357 -361 0
-357 -362 0
-357 -363 0
-357 -364 0
-357 -365 0
-357 -366 0
-357 -367 0
-357 -368 0
-357 -369 0
-357 -370 0
-357 -371 0
-357 -372 0
-357 -373 0
-357 -374 0
-357 -375 0
-358 -359 0
-358 -360 0
-358 -361 0
-358 -362 0
-358 -363 0
-358 -364 0
-358 -365 0
-358 -366 0
-358 -367 0
-358 -368 0
-358 -369 0
-358 -370 0
-358 -371 0
-358 -372 0
-358 -373 0
-358 -374 0
-358 -375 0
-359 -360 0
-359 -361 0
-359 -362 0
-359 -363 0
-359 -364 0
-359 -365 0
-359 -366 0
-359 -367 0
-359 -368 0
-359 -369 0
-359 -370 0
-359 -371 0
-359 -372 0
-359 -373 0
-359 -374 0
-359 -375 0
-360 -361 0
-360 -362 0
-360 -363 0
-360 -364 0
-360 -365 0
-360 -366 0
-360 -367 0
-360 -368 0
-360 -369 0
-360 -370 0
-360 -371 0
-360 -372 0
-360 -373 0
-360 -374 0
-360 -375 0
-361 -362 0
-361 -363 0
-361 -364 0
-361 -365 0
-361 -366 0
-361 -367 0
-361 -368 0
-361 -369 0
-361 -370 0
-361 -371 0
-361 -372 0
-361 -373 0
-361 -374 0
-361 -375 0
-362 -363 0
-362 -364 0
-362 -365 0
-362 -366 0
-362 -367 0
-362 -368 0
-362 -369 0
-362 -370 0
-362 -371 0
-362 -372 0
-362 -373 0
-362 -374 0
-362 -375 0
-363 -364 0
-363 -365 0
-363 -366 0
-363 -367 0
-363 -368 0
-363 -369 0
-363 -370 0
-363 -371 0
-363 -372 0
-363 -373 0
-363 -374 0
-363 -375 0
-364 -365 0
-364 -366 0
-364 -367 0
-364 -368 0
-364 -369 0
-364 -370 0
-364 -371 0
-364 -372 0
-364 -373 0
-364 -374 0
-364 -375 0
-365 -366 0
-365 -367 0
-365 -368 0
-365 -369 0
-365 -370 0
-365 -371 0
-365 -372 0
-365 -373 0
-365 -374 0
-365 -375 0
-366 -367 0
-366 -368 0
-366 -369 0
-366 -370 0
-366 -371 0
-366 -372 0
-366 -373 0
-366 -374 0
-366 -375 0
-367 -368 0
-367 -369 0
-367 -370 0
-367 -371 0
-367 -372 0
-367 -373 0
-367 -374 0
-367 -375 0
-368 -369 0
-368 -370 0
-368 -371 0
-368 -372 0
-368 -373 0
-368 -374 0
-368 -375 0
-369 -370 0
-369 -371 0
-369 -372 0
-369 -373 0
-369 -374 0
-369 -375 0
-370 -371 0
-370 -372 0
-370 -373 0
-370 -374 0
-370 -375 0
-371 -372 0
-371 -373 0
-371 -374 0
-371 -375 0
-372 -373 0
-372 -374 0
-372 -375 0
-373 -374 0
-373 -375 0
-374 -375 0
-376 -377 0
-376 -378 0
-376 -379 0
-376 -380 0
-376 -381 0
-376 -382 0
-376 -383 0
-376 -384 0
-376 -385 0
-376 -386 0
-376 -387 0
-376 -388 0
-376 -389 0
-376 -390 0
-376 -391 0
-376 -392 0
-376 -393 0
-376 -394 0
-376 -395 0
-376 -396 0
-376 -397 0
-376 -398 0
-376 -399 0
-376 -400 0
-377 -378 0
-377 -379 0
-377 -380 0
-377 -381 0
-377 -382 0
-377 -383 0
-377 -384 0
-377 -385 0
-377 -386 0
-377 -387 0
-377 -388 0
-377 -389 0
-377 -390 0
-377 -391 0
-377 -392 0
-377 -393 0
-377 -394 0
-377 -395 0
-377 -396 0
-377 -397 0
-377 -398 0
-377 -399 0
-377 -400 0
-378 -379 0
-378 -380 0
-378 -381 0
-378 -382 0
-378 -383 0
-378 -384 0
-378 -385 0
-378 -386 0
-378 -387 0
-378 -388 0
-378 -389 0
-378 -390 0
-378 -391 0
-378 -392 0
-378 -393 0
-378 -394 0
-378 -395 0
-378 -396 0
-378 -397 0
-378 -398 0
-378 -399 0
-378 -400 0
-379 -380 0
-379 -381 0
-379 -382 0
-379 -383 0
-379 -384 0
-379 -385 0
-379 -386 0
-379 -387 0
-379 -388 0
-379 -389 0
-379 -390 0
-379 -391 0
-379 -392 0
-379 -393 0
-379 -394 0
-379 -395 0
-379 -396 0
-379 -397 0
-379 -398 0
-379 -399 0
-379 -400 0
-380 -381 0
-380 -382 0
-380 -383 0
-380 -384 0
-380 -385 0
-380 -386 0
-380 -387 0
-380 -388 0
-380 -389 0
-380 -390 0
-380 -391 0
-380 -392 0
-380 -393 0
-380 -394 0
-380 -395 0
-380 -396 0
-380 -397 0
-380 -398 0
-380 -399 0
-380 -400 0
-381 -382 0
-381 -383 0
-381 -384 0
-381 -385 0
-381 -386 0
-381 -387 0
-381 -388 0
-381 -389 0
-381 -390 0
-381 -391 0
-381 -392 0
-381 -393 0
-381 -394 0
-381 -395 0
-381 -396 0
-381 -397 0
-381 -398 0
-381 -399 0
-381 -400 0
-382 -383 0
-382 -384 0
-382 -385 0
-382 -386 0
-382 -387 0
-382 -388 0
-382 -389 0
-382 -390 0
-382 -391 0
-382 -392 0
-382 -393 0
-382 -394 0
-382 -395 0
-382 -396 0
-382 -397 0
-382 -398 0
-382 -399 0
-382 -400 0
-383 -384 0
-383 -385 0
-383 -386 0
-383 -387 0
-383 -388 0
-383 -389 0
-383 -390 0
-383 -391 0
-383 -392 0
-383 -393 0
-383 -394 0
-383 -395 0
-383 -396 0
-383 -397 0
-383 -398 0
-383 -399 0
-383 -400 0
-384 -385 0
-384 -386 0
-384 -387 0
-384 -388 0
-384 -389 0
-384 -390 0
-384 -391 0
-384 -392 0
-384 -393 0
-384 -394 0
-384 -395 0
-384 -396 0
-384 -397 0
-384 -398 0
-384 -399 0
-384 -400 0
-385 -386 0
-385 -387 0
-385 -388 0
-385 -389 0
-385 -390 0
-385 -391 0
-385 -392 0
-385 -393 0
-385 -394 0
-385 -395 0
-385 -396 0
-385 -397 0
-385 -398 0
-385 -399 0
-385 -400 0
-386 -387 0
-386 -388 0
-386 -389 0
-386 -390 0
-386 -391 0
-386 -392 0
-386 -393 0
-386 -394 0
-386 -395 0
-386 -396 0
-386 -397 0
-386 -398 0
-386 -399 0
-386 -400 0
-387 -388 0
-387 -389 0
-387 -390 0
-387 -391 0
-387 -392 0
-387 -393 0
-387 -394 0
-387 -395 0
-387 -396 0
-387 -397 0
-387 -398 0
-387 -399 0
-387 -400 0
-388 -389 0
-388 -390 0
-388 -391 0
-388 -392 0
-388 -393 0
-388 -394 0
-388 -395 0
-388 -396 0
-388 -397 0
-388 -398 0
-388 -399 0
-388 -400 0
-389 -390 0
-389 -391 0
-389 -392 0
-389 -393 0
-389 -394 0
-389 -395 0
-389 -396 0
-389 -397 0
-389 -398 0
-389 -399 0
-389 -400 0
-390 -391 0
-390 -392 0
-390 -393 0
-390 -394 0
-390 -395 0
-390 -396 0
-390 -397 0
-390 -398 0
-390 -399 0
-390 -400 0
-391 -392 0
-391 -393 0
-391 -394 0
-391 -395 0
-391 -396 0
-391 -397 0
-391 -398 0
-391 -399 0
-391 -400 0
-392 -393 0
-392 -394 0
-392 -395 0
-392 -396 0
-392 -397 0
-392 -398 0
-392 -399 0
-392 -400 0
-393 -394 0
-393 -395 0
-393 -396 0
-393 -397 0
-393 -398 0
-393 -399 0
-393 -400 0
-394 -395 0
-394 -396 0
-394 -397 0
-394 -398 0
-394 -399 0
-394 -400 0
-395 -396 0
-395 -397 0
-395 -398 0
-395 -399 0
-395 -400 0
-396 -397 0
-396 -398 0
-396 -399 0
-396 -400 0
-397 -398 0
-397 -399 0
-397 -400 0
-398 -399 0
-398 -400 0
-399 -400 0
-401 -402 0
-401 -403 0
-401 -404 0
-401 -405 0
-401 -406 0
-401 -407 0
-401 -408 0
-401 -409 0
-401 -410 0
-401 -411 0
-401 -412 0
-401 -413 0
-401 -414 0
-401 -415 0
-401 -416 0
-401 -417 0
-401 -418 0
-401 -419 0
-401 -420 0
-401 -421 0
-401 -422 0
-401 -423 0
-401 -424 0
-401 -425 0
-402 -403 0
-402 -404 0
-402 -405 0
-402 -406 0
-402 -407 0
-402 -408 0
-402 -409 0
-402 -410 0
-402 -411 0
-402 -412 0
-402 -413 0
-402 -414 0
-402 -415 0
-402 -416 0
-402 -417 0
-402 -418 0
-402 -419 0
-402 -420 0
-402 -421 0
-402 -422 0
-402 -423 0
-402 -424 0
-402 -425 0
-403 -404 0
-403 -405 0
-403 -406 0
-403 -407 0
-403 -408 0
-403 -409 0
-403 -410 0
-403 -411 0
-403 -412 0
-403 -413 0
-403 -414 0
-403 -415 0
-403 -416 0
-403 -417 0
-403 -418 0
-403 -419 0
-403 -420 0
-403 -421 0
-403 -422 0
-403 -423 0
-403 -424 0
-403 -425 0
-404 -405 0
-404 -406 0
-404 -407 0
-404 -408 0
-404 -409 0
-404 -410 0
-404 -411 0
-404 -412 0
-404 -413 0
-404 -414 0
-404 -415 0
-404 -416 0
-404 -417 0
-404 -418 0
-404 -419 0
-404 -420 0
-404 -421 0
-404 -422 0
-404 -423 0
-404 -424 0
-404 -425 0
-405 -406 0
-405 -407 0
-405 -408 0
-405 -409 0
-405 -410 0
-405 -411 0
-405 -412 0
-405 -413 0
-405 -414 0
-405 -415 0
-405 -416 0
-405 -417 0
-405 -418 0
-405 -419 0
-405 -420 0
-405 -421 0
-405 -422 0
-405 -423 0
-405 -424 0
-405 -425 0
-406 -407 0
-406 -408 0
-406 -409 0
-406 -410 0
-406 -411 0
-406 -412 0
-406 -413 0
-406 -414 0
-406 -415 0
-406 -416 0
-406 -417 0
-406 -418 0
-406 -419 0
-406 -420 0
-406 -421 0
-406 -422 0
-406 -423 0
-406 -424 0
-406 -425 0
-407 -408 0
-407 -409 0
-407 -410 0
-407 -411 0
-407 -412 0
-407 -413 0
-407 -414 0
-407 -415 0
-407 -416 0
-407 -417 0
-407 -418 0
-407 -419 0
-407 -420 0
-407 -421 0
-407 -422 0
-407 -423 0
-407 -424 0
-407 -425 0
-408 -409 0
-408 -410 0
-408 -411 0
-408 -412 0
-408 -413 0
-408 -414 0
-408 -415 0
-408 -416 0
-408 -417 0
-408 -418 0
-408 -419 0
-408 -420 0
-408 -421 0
-408 -422 0
-408 -423 0
-408 -424 0
-408 -425 0
-409 -410 0
-409 -411 0
-409 -412 0
-409 -413 0
-409 -414 0
-409 -415 0
-409 -416 0
-409 -417 0
-409 -418 0
-409 -419 0
-409 -420 0
-409 -421 0
-409 -422 0
-409 -423 0
-409 -424 0
-409 -425 0
-410 -411 0
-410 -412 0
-410 -413 0
-410 -414 0
-410 -415 0
-410 -416 0
-410 -417 0
-410 -418 0
-410 -419 0
-410 -420 0
-410 -421 0
-410 -422 0
-410 -423 0
-410 -424 0
-410 -425 0
-411 -412 0
-411 -413 0
-411 -414 0
-411 -415 0
-411 -416 0
-411 -417 0
-411 -418 0
-411 -419 0
-411 -420 0
-411 -421 0
-411 -422 0
-411 -423 0
-411 -424 0
-411 -425 0
-412 -413 0
-412 -414 0
-412 -415 0
-412 -416 0
-412 -417 0
-412 -418 0
-412 -419 0
-412 -420 0
-412 -421 0
-412 -422 0
-412 -423 0
-412 -424 0
-412 -425 0
-413 -414 0
-413 -415 0
-413 -416 0
-413 -417 0
-413 -418 0
-413 -419 0
-413 -420 0
-413 -421 0
-413 -422 0
-413 -423 0
-413 -424 0
-413 -425 0
-414 -415 0
-414 -416 0
-414 -417 0
-414 -418 0
-414 -419 0
-414 -420 0
-414 -421 0
-414 -422 0
-414 -423 0
-414 -424 0
-414 -425 0
-415 -416 0
-415 -417 0
-415 -418 0
-415 -419 0
-415 -420 0
-415 -421 0
-415 -422 0
-415 -423 0
-415 -424 0
-415 -425 0
-416 -417 0
-416 -418 0
-416 -419 0
-416 -420 0
-416 -421 0
-416 -422 0
-416 -423 0
-416 -424 0
-416 -425 0
-417 -418 0
-417 -419 0
-417 -420 0
-417 -421 0
-417 -422 0
-417 -423 0
-417 -424 0
-417 -425 0
-418 -419 0
-418 -420 0
-418 -421 0
-418 -422 0
-418 -423 0
-418 -424 0
-418 -425 0
-419 -420 0
-419 -421 0
-419 -422 0
-419 -423 0
-419 -424 0
-419 -425 0
-420 -421 0
-420 -422 0
-420 -423 0
-420 -424 0
-420 -425 0
-421 -422 0
-421 -423 0
-421 -424 0
-421 -425 0
-422 -423 0
-422 -424 0
-422 -425 0
-423 -424 0
-423 -425 0
-424 -425 0
-426 -427 0
-426 -428 0
-426 -429 0
-426 -430 0
-426 -431 0
-426 -432 0
-426 -433 0
-426 -434 0
-426 -435 0
-426 -436 0
-426 -437 0
-426 -438 0
-426 -439 0
-426 -440 0
-426 -441 0
-426 -442 0
-426 -443 0
-426 -444 0
-426 -445 0
-426 -446 0
-426 -447 0
-426 -448 0
-426 -449 0
-426 -450 0
-427 -428 0
-427 -429 0
-427 -430 0
-427 -431 0
-427 -432 0
-427 -433 0
-427 -434 0
-427 -435 0
-427 -436 0
-427 -437 0
-427 -438 0
-427 -439 0
-427 -440 0
-427 -441 0
-427 -442 0
-427 -443 0
-427 -444 0
-427 -445 0
-427 -446 0
-427 -447 0
-427 -448 0
-427 -449 0
-427 -450 0
-428 -429 0
-428 -430 0
-428 -431 0
-428 -432 0
-428 -433 0
-428 -434 0
-428 -435 0
-428 -436 0
-428 -437 0
-428 -438 0
-428 -439 0
-428 -440 0
-428 -441 0
-428 -442 0
-428 -443 0
-428 -444 0
-428 -445 0
-428 -446 0
-428 -447 0
-428 -448 0
-428 -449 0
-428 -450 0
-429 -430 0
-429 -431 0
-429 -432 0
-429 -433 0
-429 -434 0
-429 -435 0
-429 -436 0
-429 -437 0
-429 -438 0
-429 -439 0
-429 -440 0
-429 -441 0
-429 -442 0
-429 -443 0
-429 -444 0
-429 -445 0
-429 -446 0
-429 -447 0
-429 -448 0
-429 -449 0
-429 -450 0
-430 -431 0
-430 -432 0
-430 -433 0
-430 -434 0
-430 -435 0
-430 -436 0
-430 -437 0
-430 -438 0
-430 -439 0
-430 -440 0
-430 -441 0
-430 -442 0
-430 -443 0
-430 -444 0
-430 -445 0
-430 -446 0
-430 -447 0
-430 -448 0
-430 -449 0
-430 -450 0
-431 -432 0
-431 -433 0
-431 -434 0
-431 -435 0
-431 -436 0
-431 -437 0
-431 -438 0
-431 -439 0
-431 -440 0
-431 -441 0
-431 -442 0
-431 -443 0
-431 -444 0
-431 -445 0
-431 -446 0
-431 -447 0
-431 -448 0
-431 -449 0
-431 -450 0
-432 -433 0
-432 -434 0
-432 -435 0
-432 -436 0
-432 -437 0
-432 -438 0
-432 -439 0
-432 -440 0
-432 -441 0
-432 -442 0
-432 -443 0
-432 -444 0
-432 -445 0
-432 -446 0
-432 -447 0
-432 -448 0
-432 -449 0
-432 -450 0
-433 -434 0
-433 -435 0
-433 -436 0
-433 -437 0
-433 -438 0
-433 -439 0
-433 -440 0
-433 -441 0
-433 -442 0
-433 -443 0
-433 -444 0
-433 -445 0
-433 -446 0
-433 -447 0
-433 -448 0
-433 -449 0
-433 -450 0
-434 -435 0
-434 -436 0
-434 -437 0
-434 -438 0
-434 -439 0
-434 -440 0
-434 -441 0
-434 -442 0
-434 -443 0
-434 -444 0
-434 -445 0
-434 -446 0
-434 -447 0
-434 -448 0
-434 -449 0
-434 -450 0
-435 -436 0
-435 -437 0
-435 -438 0
-435 -439 0
-435 -440 0
-435 -441 0
-435 -442 0
-435 -443 0
-435 -444 0
-435 -445 0
-435 -446 0
-435 -447 0
-435 -448 0
-435 -449 0
-435 -450 0
-436 -437 0
-436 -438 0
-436 -439 0
-436 -440 0
-436 -441 0
-436 -442 0
-436 -443 0
-436 -444 0
-436 -445 0
-436 -446 0
-436 -447 0
-436 -448 0
-436 -449 0
-436 -450 0
-437 -438 0
-437 -439 0
-437 -440 0
-437 -441 0
-437 -442 0
-437 -443 0
-437 -444 0
-437 -445 0
-437 -446 0
-437 -447 0
-437 -448 0
-437 -449 0
-437 -450 0
-438 -439 0
-438 -440 0
-438 -441 0
-438 -442 0
-438 -443 0
-438 -444 0
-438 -445 0
-438 -446 0
-438 -447 0
-438 -448 0
-438 -449 0
-438 -450 0
-439 -440 0
-439 -441 0
-439 -442 0
-439 -443 0
-439 -444 0
-439 -445 0
-439 -446 0
-439 -447 0
-439 -448 0
-439 -449 0
-439 -450 0
-440 -441 0
-440 -442 0
-440 -443 0
-440 -444 0
-440 -445 0
-440 -446 0
-440 -447 0
-440 -448 0
-440 -449 0
-440 -450 0
-441 -442 0
-441 -443 0
-441 -444 0
-441 -445 0
-441 -446 0
-441 -447 0
-441 -448 0
-441 -449 0
-441 -450 0
-442 -443 0
-442 -444 0
-442 -445 0
-442 -446 0
-442 -447 0
-442 -448 0
-442 -449 0
-442 -450 0
-443 -444 0
-443 -445 0
-443 -446 0
-443 -447 0
-443 -448 0
-443 -449 0
-443 -450 0
-444 -445 0
-444 -446 0
-444 -447 0
-444 -448 0
-444 -449 0
-444 -450 0
-445 -446 0
-445 -447 0
-445 -448 0
-445 -449 0
-445 -450 0
-446 -447 0
-446 -448 0
-446 -449 0
-446 -450 0
-447 -448 0
-447 -449 0
-447 -450 0
-448 -449 0
-448 -450 0
-449 -450 0
-451 -452 0
-451 -453 0
-451 -454 0
-451 -455 0
-451 -456 0
-451 -457 0
-451 -458 0
-451 -459 0
-451 -460 0
-451 -461 0
-451 -462 0
-451 -463 0
-451 -464 0
-451 -465 0
-451 -466 0
-451 -467 0
-451 -468 0
-451 -469 0
-451 -470 0
-451 -471 0
-451 -472 0
-451 -473 0
-451 -474 0
-451 -475 0
-452 -453 0
-452 -454 0
-452 -455 0
-452 -456 0
-452 -457 0
-452 -458 0
-452 -459 0
-452 -460 0
-452 -461 0
-452 -462 0
-452 -463 0
-452 -464 0
-452 -465 0
-452 -466 0
-452 -467 0
-452 -468 0
-452 -469 0
-452 -470 0
-452 -471 0
-452 -472 0
-452 -473 0
-452 -474 0
-452 -475 0
-453 -454 0
-453 -455 0
-453 -456 0
-453 -457 0
-453 -458 0
-453 -459 0
-453 -460 0
-453 -461 0
-453 -462 0
-453 -463 0
-453 -464 0
-453 -465 0
-453 -466 0
-453 -467 0
-453 -468 0
-453 -469 0
-453 -470 0
-453 -471 0
-453 -472 0
-453 -473 0
-453 -474 0
-453 -475 0
-454 -455 0
-454 -456 0
-454 -457 0
-454 -458 0
-454 -459 0
-454 -460 0
-454 -461 0
-454 -462 0
-454 -463 0
-454 -464 0
-454 -465 0
-454 -466 0
-454 -467 0
-454 -468 0
-454 -469 0
-454 -470 0
-454 -471 0
-454 -472 0
-454 -473 0
-454 -474 0
-454 -475 0
-455 -456 0
-455 -457 0
-455 -458 0
-455 -459 0
-455 -460 0
-455 -461 0
-455 -462 0
-455 -463 0
-455 -464 0
-455 -465 0
-455 -466 0
-455 -467 0
-455 -468 0
-455 -469 0
-455 -470 0
-455 -471 0
-455 -472 0
-455 -473 0
-455 -474 0
-455 -475 0
-456 -457 0
-456 -458 0
-456 -459 0
-456 -460 0
-456 -461 0
-456 -462 0
-456 -463 0
-456 -464 0
-456 -465 0
-456 -466 0
-456 -467 0
-456 -468 0
-456 -469 0
-456 -470 0
-456 -471 0
-456 -472 0
-456 -473 0
-456 -474 0
-456 -475 0
-457 -458 0
-457 -459 0
-457 -460 0
-457 -461 0
-457 -462 0
-457 -463 0
-457 -464 0
-457 -465 0
-457 -466 0
-457 -467 0
-457 -468 0
-457 -469 0
-457 -470 0
-457 -471 0
-457 -472 0
-457 -473 0
-457 -474 0
-457 -475 0
-458 -459 0
-458 -460 0
-458 -461 0
-458 -462 0
-458 -463 0
-458 -464 0
-458 -465 0
-458 -466 0
-458 -467 0
-458 -468 0
-458 -469 0
-458 -470 0
-458 -471 0
-458 -472 0
-458 -473 0
-458 -474 0
-458 -475 0
-459 -460 0
-459 -461 0
-459 -462 0
-459 -463 0
-459 -464 0
-459 -465 0
-459 -466 0
-459 -467 0
-459 -468 0
-459 -469 0
-459 -470 0
-459 -471 0
-459 -472 0
-459 -473 0
-459 -474 0
-459 -475 0
-460 -461 0
-460 -462 0
-460 -463 0
-460 -464 0
-460 -465 0
-460 -466 0
-460 -467 0
-460 -468 0
-460 -469 0
-460 -470 0
-460 -471 0
-460 -472 0
-460 -473 0
-460 -474 0
-460 -475 0
-461 -462 0
-461 -463 0
-461 -464 0
-461 -465 0
-461 -466 0
-461 -467 0
-461 -468 0
-461 -469 0
-461 -470 0
-461 -471 0
-461 -472 0
-461 -473 0
-461 -474 0
-461 -475 0
-462 -463 0
-462 -464 0
-462 -465 0
-462 -466 0
-462 -467 0
-462 -468 0
-462 -469 0
-462 -470 0
-462 -471 0
-462 -472 0
-462 -473 0
-462 -474 0
-462 -475 0
-463 -464 0
-463 -465 0
-463 -466 0
-463 -467 0
-463 -468 0
-463 -469 0
-463 -470 0
-463 -471 0
-463 -472 0
-463 -473 0
-463 -474 0
-463 -475 0
-464 -465 0
-464 -466 0
-464 -467 0
-464 -468 0
-464 -469 0
-464 -470 0
-464 -471 0
-464 -472 0
-464 -473 0
-464 -474 0
-464 -475 0
-465 -466 0
-465 -467 0
-465 -468 0
-465 -469 0
-465 -470 0
-465 -471 0
-465 -472 0
-465 -473 0
-465 -474 0
-465 -475 0
-466 -467 0
-466 -468 0
-466 -469 0
-466 -470 0
-466 -471 0
-466 -472 0
-466 -473 0
-466 -474 0
-466 -475 0
-467 -468 0
-467 -469 0
-467 -470 0
-467 -471 0
-467 -472 0
-467 -473 0
-467 -474 0
-467 -475 0
-468 -469 0
-468 -470 0
-468 -471 0
-468 -472 0
-468 -473 0
-468 -474 0
-468 -475 0
-469 -470 0
-469 -471 0
-469 -472 0
-469 -473 0
-469 -474 0
-469 -475 0
-470 -471 0
-470 -472 0
-470 -473 0
-470 -474 0
-470 -475 0
-471 -472 0
-471 -473 0
-471 -474 0
-471 -475 0
-472 -473 0
-472 -474 0
-472 -475 0
-473 -474 0
-473 -475 0
-474 -475 0
-476 -477 0
-476 -478 0
-476 -479 0
-476 -480 0
-476 -481 0
-476 -482 0
-476 -483 0
-476 -484 0
-476 -485 0
-476 -486 0
-476 -487 0
-476 -488 0
-476 -489 0
-476 -490 0
-476 -491 0
-476 -492 0
-476 -493 0
-476 -494 0
-476 -495 0
-476 -496 0
-476 -497 0
-476 -498 0
-476 -499 0
-476 -500 0
-477 -478 0
-477 -479 0
-477 -480 0
-477 -481 0
-477 -482 0
-477 -483 0
-477 -484 0
-477 -485 0
-477 -486 0
-477 -487 0
-477 -488 0
-477 -489 0
-477 -490 0
-477 -491 0
-477 -492 0
-477 -493 0
-477 -494 0
-477 -495 0
-477 -496 0
-477 -497 0
-477 -498 0
-477 -499 0
-477 -500 0
-478 -479 0
-478 -480 0
-478 -481 0
-478 -482 0
-478 -483 0
-478 -484 0
-478 -485 0
-478 -486 0
-478 -487 0
-478 -488 0
-478 -489 0
-478 -490 0
-478 -491 0
-478 -492 0
-478 -493 0
-478 -494 0
-478 -495 0
-478 -496 0
-478 -497 0
-478 -498 0
-478 -499 0
-478 -500 0
-479 -480 0
-479 -481 0
-479 -482 0
-479 -483 0
-479 -484 0
-479 -485 0
-479 -486 0
-479 -487 0
-479 -488 0
-479 -489 0
-479 -490 0
-479 -491 0
-479 -492 0
-479 -493 0
-479 -494 0
-479 -495 0
-479 -496 0
-479 -497 0
-479 -498 0
-479 -499 0
-479 -500 0
-480 -481 0
-480 -482 0
-480 -483 0
-480 -484 0
-480 -485 0
-480 -486 0
-480 -487 0
-480 -488 0
-480 -489 0
-480 -490 0
-480 -491 0
-480 -492 0
-480 -493 0
-480 -494 0
-480 -495 0
-480 -496 0
-480 -497 0
-480 -498 0
-480 -499 0
-480 -500 0
-481 -482 0
-481 -483 0
-481 -484 0
-481 -485 0
-481 -486 0
-481 -487 0
-481 -488 0
-481 -489 0
-481 -490 0
-481 -491 0
-481 -492 0
-481 -493 0
-481 -494 0
-481 -495 0
-481 -496 0
-481 -497 0
-481 -498 0
-481 -499 0
-481 -500 0
-482 -483 0
-482 -484 0
-482 -485 0
-482 -486 0
-482 -487 0
-482 -488 0
-482 -489 0
-482 -490 0
-482 -491 0
-482 -492 0
-482 -493 0
-482 -494 0
-482 -495 0
-482 -496 0
-482 -497 0
-482 -498 0
-482 -499 0
-482 -500 0
-483 -484 0
-483 -485 0
-483 -486 0
-483 -487 0
-483 -488 0
-483 -489 0
-483 -490 0
-483 -491 0
-483 -492 0
-483 -493 0
-483 -494 0
-483 -495 0
-483 -496 0
-483 -497 0
-483 -498 0
-483 -499 0
-483 -500 0
-484 -485 0
-484 -486 0
-484 -487 0
-484 -488 0
-484 -489 0
-484 -490 0
-484 -491 0
-484 -492 0
-484 -493 0
-484 -494 0
-484 -495 0
-484 -496 0
-484 -497 0
-484 -498 0
-484 -499 0
-484 -500 0
-485 -486 0
-485 -487 0
-485 -488 0
-485 -489 0
-485 -490 0
-485 -491 0
-485 -492 0
-485 -493 0
-485 -494 0
-485 -495 0
-485 -496 0
-485 -497 0
-485 -498 0
-485 -499 0
-485 -500 0
-486 -487 0
-486 -488 0
-486 -489 0
-486 -490 0
-486 -491 0
-486 -492 0
-486 -493 0
-486 -494 0
-486 -495 0
-486 -496 0
-486 -497 0
-486 -498 0
-486 -499 0
-486 -500 0
-487 -488 0
-487 -489 0
-487 -490 0
-487 -491 0
-487 -492 0
-487 -493 0
-487 -494 0
-487 -495 0
-487 -496 0
-487 -497 0
-487 -498 0
-487 -499 0
-487 -500 0
-488 -489 0
-488 -490 0
-488 -491 0
-488 -492 0
-488 -493 0
-488 -494 0
-488 -495 0
-488 -496 0
-488 -497 0
-488 -498 0
-488 -499 0
-488 -500 0
-489 -490 0
-489 -491 0
-489 -492 0
-489 -493 0
-489 -494 0
-489 -495 0
-489 -496 0
-489 -497 0
-489 -498 0
-489 -499 0
-489 -500 0
-490 -491 0
-490 -492 0
-490 -493 0
-490 -494 0
-490 -495 0
-490 -496 0
-490 -497 0
-490 -498 0
-490 -499 0
-490 -500 0
-491 -492 0
-491 -493 0
-491 -494 0
-491 -495 0
-491 -496 0
-491 -497 0
-491 -498 0
-491 -499 0
-491 -500 0
-492 -493 0
-492 -494 0
-492 -495 0
-492 -496 0
-492 -497 0
-492 -498 0
-492 -499 0
-492 -500 0
-493 -494 0
-493 -495 0
-493 -496 0
-493 -497 0
-493 -498 0
-493 -499 0
-493 -500 0
-494 -495 0
-494 -496 0
-494 -497 0
-494 -498 0
-494 -499 0
-494 -500 0
-495 -496 0
-495 -497 0
-495 -498 0
-495 -499 0
-495 -500 0
-496 -497 0
-496 -498 0
-496 -499 0
-496 -500 0
-497 -498 0
-497 -499 0
-497 -500 0
-498 -499 0
-498 -500 0
-499 -500 0
-501 -502 0
-501 -503 0
-501 -504 0
-501 -505 0
-501 -506 0
-501 -507 0
-501 -508 0
-501 -509 0
-501 -510 0
-501 -511 0
-501 -512 0
-501 -513 0
-501 -514 0
-501 -515 0
-501 -516 0
-501 -517 0
-501 -518 0
-501 -519 0
-501 -520 0
-501 -521 0
-501 -522 0
-501 -523 0
-501 -524 0
-501 -525 0
-502 -503 0
-502 -504 0
-502 -505 0
-502 -506 0
-502 -507 0
-502 -508 0
-502 -509 0
-502 -510 0
-502 -511 0
-502 -512 0
-502 -513 0
-502 -514 0
-502 -515 0
-502 -516 0
-502 -517 0
-502 -518 0
-502 -519 0
-502 -520 0
-502 -521 0
-502 -522 0
-502 -523 0
-502 -524 0
-502 -525 0
-503 -504 0
-503 -505 0
-503 -506 0
-503 -507 0
-503 -508 0
-503 -509 0
-503 -510 0
-503 -511 0
-503 -512 0
-503 -513 0
-503 -514 0
-503 -515 0
-503 -516 0
-503 -517 0
-503 -518 0
-503 -519 0
-503 -520 0
-503 -521 0
-503 -522 0
-503 -523 0
-503 -524 0
-503 -525 0
-504 -505 0
-504 -506 0
-504 -507 0
-504 -508 0
-504 -509 0
-504 -510 0
-504 -511 0
-504 -512 0
-504 -513 0
-504 -514 0
-504 -515 0
-504 -516 0
-504 -517 0
-504 -518 0
-504 -519 0
-504 -520 0
-504 -521 0
-504 -522 0
-504 -523 0
-504 -524 0
-504 -525 0
-505 -506 0
-505 -507 0
-505 -508 0
-505 -509 0
-505 -510 0
-505 -511 0
-505 -512 0
-505 -513 0
-505 -514 0
-505 -515 0
-505 -516 0
-505 -517 0
-505 -518 0
-505 -519 0
-505 -520 0
-505 -521 0
-505 -522 0
-505 -523 0
-505 -524 0
-505 -525 0
-506 -507 0
-506 -508 0
-506 -509 0
-506 -510 0
-506 -511 0
-506 -512 0
-506 -513 0
-506 -514 0
-506 -515 0
-506 -516 0
-506 -517 0
-506 -518 0
-506 -519 0
-506 -520 0
-506 -521 0
-506 -522 0
-506 -523 0
-506 -524 0
-506 -525 0
-507 -508 0
-507 -509 0
-507 -510 0
-507 -511 0
-507 -512 0
-507 -513 0
-507 -514 0
-507 -515 0
-507 -516 0
-507 -517 0
-507 -518 0
-507 -519 0
-507 -520 0
-507 -521 0
-507 -522 0
-507 -523 0
-507 -524 0
-507 -525 0
-508 -509 0
-508 -510 0
-508 -511 0
-508 -512 0
-508 -513 0
-508 -514 0
-508 -515 0
-508 -516 0
-508 -517 0
-508 -518 0
-508 -519 0
-508 -520 0
-508 -521 0
-508 -522 0
-508 -523 0
-508 -524 0
-508 -525 0
-509 -510 0
-509 -511 0
-509 -512 0
-509 -513 0
-509 -514 0
-509 -515 0
-509 -516 0
-509 -517 0
-509 -518 0
-509 -519 0
-509 -520 0
-509 -521 0
-509 -522 0
-509 -523 0
-509 -524 0
-509 -525 0
-510 -511 0
-510 -512 0
-510 -513 0
-510 -514 0
-510 -515 0
-510 -516 0
-510 -517 0
-510 -518 0
-510 -519 0
-510 -520 0
-510 -521 0
-510 -522 0
-510 -523 0
-510 -524 0
-510 -525 0
-511 -512 0
-511 -513 0
-511 -514 0
-511 -515 0
-511 -516 0
-511 -517 0
-511 -518 0
-511 -519 0
-511 -520 0
-511 -521 0
-511 -522 0
-511 -523 0
-511 -524 0
-511 -525 0
-512 -513 0
-512 -514 0
-512 -515 0
-512 -516 0
-512 -517 0
-512 -518 0
-512 -519 0
-512 -520 0
-512 -521 0
-512 -522 0
-512 -523 0
-512 -524 0
-512 -525 0
-513 -514 0
-513 -515 0
-513 -516 0
-513 -517 0
-513 -518 0
-513 -519 0
-513 -520 0
-513 -521 0
-513 -522 0
-513 -523 0
-513 -524 0
-513 -525 0
-514 -515 0
-514 -516 0
-514 -517 0
-514 -518 0
-514 -519 0
-514 -520 0
-514 -521 0
-514 -522 0
-514 -523 0
-514 -524 0
-514 -525 0
-515 -516 0
-515 -517 0
-515 -518 0
-515 -519 0
-515 -520 0
-515 -521 0
-515 -522 0
-515 -523 0
-515 -524 0
-515 -525 0
-516 -517 0
-516 -518 0
-516 -519 0
-516 -520 0
-516 -521 0
-516 -522 0
-516 -523 0
-516 -524 0
-516 -525 0
-517 -518 0
-517 -519 0
-517 -520 0
-517 -521 0
-517 -522 0
-517 -523 0
-517 -524 0
-517 -525 0
-518 -519 0
-518 -520 0
-518 -521 0
-518 -522 0
-518 -523 0
-518 -524 0
-518 -525 0
-519 -520 0
-519 -521 0
-519 -522 0
-519 -523 0
-519 -524 0
-519 -525 0
-520 -521 0
-520 -522 0
-520 -523 0
-520 -524 0
-520 -525 0
-521 -522 0
-521 -523 0
-521 -524 0
-521 -525 0
-522 -523 0
-522 -524 0
-522 -525 0
-523 -524 0
-523 -525 0
-524 -525 0
-526 -527 0
-526 -528 0
-526 -529 0
-526 -530 0
-526 -531 0
-526 -532 0
-526 -533 0
-526 -534 0
-526 -535 0
-526 -536 0
-526 -537 0
-526 -538 0
-526 -539 0
-526 -540 0
-526 -541 0
-526 -542 0
-526 -543 0
-526 -544 0
-526 -545 0
-526 -546 0
-526 -547 0
-526 -548 0
-526 -549 0
-526 -550 0
-527 -528 0
-527 -529 0
-527 -530 0
-527 -531 0
-527 -532 0
-527 -533 0
-527 -534 0
-527 -535 0
-527 -536 0
-527 -537 0
-527 -538 0
-527 -539 0
-527 -540 0
-527 -541 0
-527 -542 0
-527 -543 0
-527 -544 0
-527 -545 0
-527 -546 0
-527 -547 0
-527 -548 0
-527 -549 0
-527 -550 0
-528 -529 0
-528 -530 0
-528 -531 0
-528 -532 0
-528 -533 0
-528 -534 0
-528 -535 0
-528 -536 0
-528 -537 0
-528 -538 0
-528 -539 0
-528 -540 0
-528 -541 0
-528 -542 0
-528 -543 0
-528 -544 0
-528 -545 0
-528 -546 0
-528 -547 0
-528 -548 0
-528 -549 0
-528 -550 0
-529 -530 0
-529 -531 0
-529 -532 0
-529 -533 0
-529 -534 0
-529 -535 0
-529 -536 0
-529 -537 0
-529 -538 0
-529 -539 0
-529 -540 0
-529 -541 0
-529 -542 0
-529 -543 0
-529 -544 0
-529 -545 0
-529 -546 0
-529 -547 0
-529 -548 0
-529 -549 0
-529 -550 0
-530 -531 0
-530 -532 0
-530 -533 0
-530 -534 0
-530 -535 0
-530 -536 0
-530 -537 0
-530 -538 0
-530 -539 0
-530 -540 0
-530 -541 0
-530 -542 0
-530 -543 0
-530 -544 0
-530 -545 0
-530 -546 0
-530 -547 0
-530 -548 0
-530 -549 0
-530 -550 0
-531 -532 0
-531 -533 0
-531 -534 0
-531 -535 0
-531 -536 0
-531 -537 0
-531 -538 0
-531 -539 0
-531 -540 0
-531 -541 0
-531 -542 0
-531 -543 0
-531 -544 0
-531 -545 0
-531 -546 0
-531 -547 0
-531 -548 0
-531 -549 0
-531 -550 0
-532 -533 0
-532 -534 0
-532 -535 0
-532 -536 0
-532 -537 0
-532 -538 0
-532 -539 0
-532 -540 0
-532 -541 0
-532 -542 0
-532 -543 0
-532 -544 0
-532 -545 0
-532 -546 0
-532 -547 0
-532 -548 0
-532 -549 0
-532 -550 0
-533 -534 0
-533 -535 0
-533 -536 0
-533 -537 0
-533 -538 0
-533 -539 0
-533 -540 0
-533 -541 0
-533 -542 0
-533 -543 0
-533 -544 0
-533 -545 0
-533 -546 0
-533 -547 0
-533 -548 0
-533 -549 0
-533 -550 0
-534 -535 0
-534 -536 0
-534 -537 0
-534 -538 0
-534 -539 0
-534 -540 0
-534 -541 0
-534 -542 0
-534 -543 0
-534 -544 0
-534 -545 0
-534 -546 0
-534 -547 0
-534 -548 0
-534 -549 0
-534 -550 0
-535 -536 0
-535 -537 0
-535 -538 0
-535 -539 0
-535 -540 0
-535 -541 0
-535 -542 0
-535 -543 0
-535 -544 0
-535 -545 0
-535 -546 0
-535 -547 0
-535 -548 0
-535 -549 0
-535 -550 0
-536 -537 0
-536 -538 0
-536 -539 0
-536 -540 0
-536 -541 0
-536 -542 0
-536 -543 0
-536 -544 0
-536 -545 0
-536 -546 0
-536 -547 0
-536 -548 0
-536 -549 0
-536 -550 0
-537 -538 0
-537 -539 0
-537 -540 0
-537 -541 0
-537 -542 0
-537 -543 0
-537 -544 0
-537 -545 0
-537 -546 0
-537 -547 0
-537 -548 0
-537 -549 0
-537 -550 0
-538 -539 0
-538 -540 0
-538 -541 0
-538 -542 0
-538 -543 0
-538 -544 0
-538 -545 0
-538 -546 0
-538 -547 0
-538 -548 0
-538 -549 0
-538 -550 0
-539 -540 0
-539 -541 0
-539 -542 0
-539 -543 0
-539 -544 0
-539 -545 0
-539 -546 0
-539 -547 0
-539 -548 0
-539 -549 0
-539 -550 0
-540 -541 0
-540 -542 0
-540 -543 0
-540 -544 0
-540 -545 0
-540 -546 0
-540 -547 0
-540 -548 0
-540 -549 0
-540 -550 0
-541 -542 0
-541 -543 0
-541 -544 0
-541 -545 0
-541 -546 0
-541 -547 0
-541 -548 0
-541 -549 0
-541 -550 0
-542 -543 0
-542 -544 0
-542 -545 0
-542 -546 0
-542 -547 0
-542 -548 0
-542 -549 0
-542 -550 0
-543 -544 0
-543 -545 0
-543 -546 0
-543 -547 0
-543 -548 0
-543 -549 0
-543 -550 0
-544 -545 0
-544 -546 0
-544 -547 0
-544 -548 0
-544 -549 0
-544 -550 0
-545 -546 0
-545 -547 0
-545 -548 0
-545 -549 0
-545 -550 0
-546 -547 0
-546 -548 0
-546 -549 0
-546 -550 0
-547 -548 0
-547 -549 0
-547 -550 0
-548 -549 0
-548 -550 0
-549 -550 0
-551 -552 0
-551 -553 0
-551 -554 0
-551 -555 0
-551 -556 0
-551 -557 0
-551 -558 0
-551 -559 0
-551 -560 0
-551 -561 0
-551 -562 0
-551 -563 0
-551 -564 0
-551 -565 0
-551 -566 0
-551 -567 0
-551 -568 0
-551 -569 0
-551 -570 0
-551 -571 0
-551 -572 0
-551 -573 0
-551 -574 0
-551 -575 0
-552 -553 0
-552 -554 0
-552 -555 0
-552 -556 0
-552 -557 0
-552 -558 0
-552 -559 0
-552 -560 0
-552 -561 0
-552 -562 0
-552 -563 0
-552 -564 0
-552 -565 0
-552 -566 0
-552 -567 0
-552 -568 0
-552 -569 0
-552 -570 0
-552 -571 0
-552 -572 0
-552 -573 0
-552 -574 0
-552 -575 0
-553 -554 0
-553 -555 0
-553 -556 0
-553 -557 0
-553 -558 0
-553 -559 0
-553 -560 0
-553 -561 0
-553 -562 0
-553 -563 0
-553 -564 0
-553 -565 0
-553 -566 0
-553 -567 0
-553 -568 0
-553 -569 0
-553 -570 0
-553 -571 0
-553 -572 0
-553 -573 0
-553 -574 0
-553 -575 0
-554 -555 0
-554 -556 0
-554 -557 0
-554 -558 0
-554 -559 0
-554 -560 0
-554 -561 0
-554 -562 0
-554 -563 0
-554 -564 0
-554 -565 0
-554 -566 0
-554 -567 0
-554 -568 0
-554 -569 0
-554 -570 0
-554 -571 0
-554 -572 0
-554 -573 0
-554 -574 0
-554 -575 0
-555 -556 0
-555 -557 0
-555 -558 0
-555 -559 0
-555 -560 0
-555 -561 0
-555 -562 0
-555 -563 0
-555 -564 0
-555 -565 0
-555 -566 0
-555 -567 0
-555 -568 0
-555 -569 0
-555 -570 0
-555 -571 0
-555 -572 0
-555 -573 0
-555 -574 0
-555 -575 0
-556 -557 0
-556 -558 0
-556 -559 0
-556 -560 0
-556 -561 0
-556 -562 0
-556 -563 0
-556 -564 0
-556 -565 0
-556 -566 0
-556 -567 0
-556 -568 0
-556 -569 0
-556 -570 0
-556 -571 0
-556 -572 0
-556 -573 0
-556 -574 0
-556 -575 0
-557 -558 0
-557 -559 0
-557 -560 0
-557 -561 0
-557 -562 0
-557 -563 0
-557 -564 0
-557 -565 0
-557 -566 0
-557 -567 0
-557 -568 0
-557 -569 0
-557 -570 0
-557 -571 0
-557 -572 0
-557 -573 0
-557 -574 0
-557 -575 0
-558 -559 0
-558 -560 0
-558 -561 0
-558 -562 0
-558 -563 0
-558 -564 0
-558 -565 0
-558 -566 0
-558 -567 0
-558 -568 0
-558 -569 0
-558 -570 0
-558 -571 0
-558 -572 0
-558 -573 0
-558 -574 0
-558 -575 0
-559 -560 0
-559 -561 0
-559 -562 0
-559 -563 0
-559 -564 0
-559 -565 0
-559 -566 0
-559 -567 0
-559 -568 0
-559 -569 0
-559 -570 0
-559 -571 0
-559 -572 0
-559 -573 0
-559 -574 0
-559 -575 0
-560 -561 0
-560 -562 0
-560 -563 0
-560 -564 0
-560 -565 0
-560 -566 0
-560 -567 0
-560 -568 0
-560 -569 0
-560 -570 0
-560 -571 0
-560 -572 0
-560 -573 0
-560 -574 0
-560 -575 0
-561 -562 0
-561 -563 0
-561 -564 0
-561 -565 0
-561 -566 0
-561 -567 0
-561 -568 0
-561 -569 0
-561 -570 0
-561 -571 0
-561 -572 0
-561 -573 0
-561 -574 0
-561 -575 0
-562 -563 0
-562 -564 0
-562 -565 0
-562 -566 0
-562 -567 0
-562 -568 0
-562 -569 0
-562 -570 0
-562 -571 0
-562 -572 0
-562 -573 0
-562 -574 0
-562 -575 0
-563 -564 0
-563 -565 0
-563 -566 0
-563 -567 0
-563 -568 0
-563 -569 0
-563 -570 0
-563 -571 0
-563 -572 0
-563 -573 0
-563 -574 0
-563 -575 0
-564 -565 0
-564 -566 0
-564 -567 0
-564 -568 0
-564 -569 0
-564 -570 0
-564 -571 0
-564 -572 0
-564 -573 0
-564 -574 0
-564 -575 0
-565 -566 0
-565 -567 0
-565 -568 0
-565 -569 0
-565 -570 0
-565 -571 0
-565 -572 0
-565 -573 0
-565 -574 0
-565 -575 0
-566 -567 0
-566 -568 0
-566 -569 0
-566 -570 0
-566 -571 0
-566 -572 0
-566 -573 0
-566 -574 0
-566 -575 0
-567 -568 0
-567 -569 0
-567 -570 0
-567 -571 0
-567 -572 0
-567 -573 0
-567 -574 0
-567 -575 0
-568 -569 0
-568 -570 0
-568 -571 0
-568 -572 0
-568 -573 0
-568 -574 0
-568 -575 0
-569 -570 0
-569 -571 0
-569 -572 0
-569 -573 0
-569 -574 0
-569 -575 0
-570 -571 0
-570 -572 0
-570 -573 0
-570 -574 0
-570 -575 0
-571 -572 0
-571 -573 0
-571 -574 0
-571 -575 0
-572 -573 0
-572 -574 0
-572 -575 0
-573 -574 0
-573 -575 0
-574 -575 0
-576 -577 0
-576 -578 0
-576 -579 0
-576 -580 0
-576 -581 0
-576 -582 0
-576 -583 0
-576 -584 0
-576 -585 0
-576 -586 0
-576 -587 0
-576 -588 0
-576 -589 0
-576 -590 0
-576 -591 0
-576 -592 0
-576 -593 0
-576 -594 0
-576 -595 0
-576 -596 0
-576 -597 0
-576 -598 0
-576 -599 0
-576 -600 0
-577 -578 0
-577 -579 0
-577 -580 0
-577 -581 0
-577 -582 0
-577 -583 0
-577 -584 0
-577 -585 0
-577 -586 0
-577 -587 0
-577 -588 0
-577 -589 0
-577 -590 0
-577 -591 0
-577 -592 0
-577 -593 0
-577 -594 0
-577 -595 0
-577 -596 0
-577 -597 0
-577 -598 0
-577 -599 0
-577 -600 0
-578 -579 0
-578 -580 0
-578 -581 0
-578 -582 0
-578 -583 0
-578 -584 0
-578 -585 0
-578 -586 0
-578 -587 0
-578 -588 0
-578 -589 0
-578 -590 0
-578 -591 0
-578 -592 0
-578 -593 0
-578 -594 0
-578 -595 0
-578 -596 0
-578 -597 0
-578 -598 0
-578 -599 0
-578 -600 0
-579 -580 0
-579 -581 0
-579 -582 0
-579 -583 0
-579 -584 0
-579 -585 0
-579 -586 0
-579 -587 0
-579 -588 0
-579 -589 0
-579 -590 0
-579 -591 0
-579 -592 0
-579 -593 0
-579 -594 0
-579 -595 0
-579 -596 0
-579 -597 0
-579 -598 0
-579 -599 0
-579 -600 0
-580 -581 0
-580 -582 0
-580 -583 0
-580 -584 0
-580 -585 0
-580 -586 0
-580 -587 0
-580 -588 0
-580 -589 0
-580 -590 0
-580 -591 0
-580 -592 0
-580 -593 0
-580 -594 0
-580 -595 0
-580 -596 0
-580 -597 0
-580 -598 0
-580 -599 0
-580 -600 0
-581 -582 0
-581 -583 0
-581 -584 0
-581 -585 0
-581 -586 0
-581 -587 0
-581 -588 0
-581 -589 0
-581 -590 0
-581 -591 0
-581 -592 0
-581 -593 0
-581 -594 0
-581 -595 0
-581 -596 0
-581 -597 0
-581 -598 0
-581 -599 0
-581 -600 0
-582 -583 0
-582 -584 0
-582 -585 0
-582 -586 0
-582 -587 0
-582 -588 0
-582 -589 0
-582 -590 0
-582 -591 0
-582 -592 0
-582 -593 0
-582 -594 0
-582 -595 0
-582 -596 0
-582 -597 0
-582 -598 0
-582 -599 0
-582 -600 0
-583 -584 0
-583 -585 0
-583 -586 0
-583 -587 0
-583 -588 0
-583 -589 0
-583 -590 0
-583 -591 0
-583 -592 0
-583 -593 0
-583 -594 0
-583 -595 0
-583 -596 0
-583 -597 0
-583 -598 0
-583 -599 0
-583 -600 0
-584 -585 0
-584 -586 0
-584 -587 0
-584 -588 0
-584 -589 0
-584 -590 0
-584 -591 0
-584 -592 0
-584 -593 0
-584 -594 0
-584 -595 0
-584 -596 0
-584 -597 0
-584 -598 0
-584 -599 0
-584 -600 0
-585 -586 0
-585 -587 0
-585 -588 0
-585 -589 0
-585 -590 0
-585 -591 0
-585 -592 0
-585 -593 0
-585 -594 0
-585 -595 0
-585 -596 0
-585 -597 0
-585 -598 0
-585 -599 0
-585 -600 0
-586 -587 0
-586 -588 0
-586 -589 0
-586 -590 0
-586 -591 0
-586 -592 0
-586 -593 0
-586 -594 0
-586 -595 0
-586 -596 0
-586 -597 0
-586 -598 0
-586 -599 0
-586 -600 0
-587 -588 0
-587 -589 0
-587 -590 0
-587 -591 0
-587 -592 0
-587 -593 0
-587 -594 0
-587 -595 0
-587 -596 0
-587 -597 0
-587 -598 0
-587 -599 0
-587 -600 0
-588 -589 0
-588 -590 0
-588 -591 0
-588 -592 0
-588 -593 0
-588 -594 0
-588 -595 0
-588 -596 0
-588 -597 0
-588 -598 0
-588 -599 0
-588 -600 0
-589 -590 0
-589 -591 0
-589 -592 0
-589 -593 0
-589 -594 0
-589 -595 0
-589 -596 0
-589 -597 0
-589 -598 0
-589 -599 0
-589 -600 0
-590 -591 0
-590 -592 0
-590 -593 0
-590 -594 0
-590 -595 0
-590 -596 0
-590 -597 0
-590 -598 0
-590 -599 0
-590 -600 0
-591 -592 0
-591 -593 0
-591 -594 0
-591 -595 0
-591 -596 0
-591 -597 0
-591 -598 0
-591 -599 0
-591 -600 0
-592 -593 0
-592 -594 0
-592 -595 0
-592 -596 0
-592 -597 0
-592 -598 0
-592 -599 0
-592 -600 0
-593 -594 0
-593 -595 0
-593 -596 0
-593 -597 0
-593 -598 0
-593 -599 0
-593 -600 0
-594 -595 0
-594 -596 0
-594 -597 0
-594 -598 0
-594 -599 0
-594 -600 0
-595 -596 0
-595 -597 0
-595 -598 0
-595 -599 0
-595 -600 0
-596 -597 0
-596 -598 0
-596 -599 0
-596 -600 0
-597 -598 0
-597 -599 0
-597 -600 0
-598 -599 0
-598 -600 0
-599 -600 0
-601 -602 0
-601 -603 0
-601 -604 0
-601 -605 0
-601 -606 0
-601 -607 0
-601 -608 0
-601 -609 0
-601 -610 0
-601 -611 0
-601 -612 0
-601 -613 0
-601 -614 0
-601 -615 0
-601 -616 0
-601 -617 0
-601 -618 0
-601 -619 0
-601 -620 0
-601 -621 0
-601 -622 0
-601 -623 0
-601 -624 0
-601 -625 0
-602 -603 0
-602 -604 0
-602 -605 0
-602 -606 0
-602 -607 0
-602 -608 0
-602 -609 0
-602 -610 0
-602 -611 0
-602 -612 0
-602 -613 0
-602 -614 0
-602 -615 0
-602 -616 0
-602 -617 0
-602 -618 0
-602 -619 0
-602 -620 0
-602 -621 0
-602 -622 0
-602 -623 0
-602 -624 0
-602 -625 0
-603 -604 0
-603 -605 0
-603 -606 0
-603 -607 0
-603 -608 0
-603 -609 0
-603 -610 0
-603 -611 0
-603 -612 0
-603 -613 0
-603 -614 0
-603 -615 0
-603 -616 0
-603 -617 0
-603 -618 0
-603 -619 0
-603 -620 0
-603 -621 0
-603 -622 0
-603 -623 0
-603 -624 0
-603 -625 0
-604 -605 0
-604 -606 0
-604 -607 0
-604 -608 0
-604 -609 0
-604 -610 0
-604 -611 0
-604 -612 0
-604 -613 0
-604 -614 0
-604 -615 0
-604 -616 0
-604 -617 0
-604 -618 0
-604 -619 0
-604 -620 0
-604 -621 0
-604 -622 0
-604 -623 0
-604 -624 0
-604 -625 0
-605 -606 0
-605 -607 0
-605 -608 0
-605 -609 0
-605 -610 0
-605 -611 0
-605 -612 0
-605 -613 0
-605 -614 0
-605 -615 0
-605 -616 0
-605 -617 0
-605 -618 0
-605 -619 0
-605 -620 0
-605 -621 0
-605 -622 0
-605 -623 0
-605 -624 0
-605 -625 0
-606 -607 0
-606 -608 0
-606 -609 0
-606 -610 0
-606 -611 0
-606 -612 0
-606 -613 0
-606 -614 0
-606 -615 0
-606 -616 0
-606 -617 0
-606 -618 0
-606 -619 0
-606 -620 0
-606 -621 0
-606 -622 0
-606 -623 0
-606 -624 0
-606 -625 0
-607 -608 0
-607 -609 0
-607 -610 0
-607 -611 0
-607 -612 0
-607 -613 0
-607 -614 0
-607 -615 0
-607 -616 0
-607 -617 0
-607 -618 0
-607 -619 0
-607 -620 0
-607 -621 0
-607 -622 0
-607 -623 0
-607 -624 0
-607 -625 0
-608 -609 0
-608 -610 0
-608 -611 0
-608 -612 0
-608 -613 0
-608 -614 0
-608 -615 0
-608 -616 0
-608 -617 0
-608 -618 0
-608 -619 0
-608 -620 0
-608 -621 0
-608 -622 0
-608 -623 0
-608 -624 0
-608 -625 0
-609 -610 0
-609 -611 0
-609 -612 0
-609 -613 0
-609 -614 0
-609 -615 0
-609 -616 0
-609 -617 0
-609 -618 0
-609 -619 0
-609 -620 0
-609 -621 0
-609 -622 0
-609 -623 0
-609 -624 0
-609 -625 0
-610 -611 0
-610 -612 0
-610 -613 0
-610 -614 0
-610 -615 0
-610 -616 0
-610 -617 0
-610 -618 0
-610 -619 0
-610 -620 0
-610 -621 0
-610 -622 0
-610 -623 0
-610 -624 0
-610 -625 0
-611 -612 0
-611 -613 0
-611 -614 0
-611 -615 0
-611 -616 0
-611 -617 0
-611 -618 0
-611 -619 0
-611 -620 0
-611 -621 0
-611 -622 0
-611 -623 0
-611 -624 0
-611 -625 0
-612 -613 0
-612 -614 0
-612 -615 0
-612 -616 0
-612 -617 0
-612 -618 0
-612 -619 0
-612 -620 0
-612 -621 0
-612 -622 0
-612 -623 0
-612 -624 0
-612 -625 0
-613 -614 0
-613 -615 0
-613 -616 0
-613 -617 0
-613 -618 0
-613 -619 0
-613 -620 0
-613 -621 0
-613 -622 0
-613 -623 0
-613 -624 0
-613 -625 0
-614 -615 0
-614 -616 0
-614 -617 0
-614 -618 0
-614 -619 0
-614 -620 0
-614 -621 0
-614 -622 0
-614 -623 0
-614 -624 0
-614 -625 0
-615 -616 0
-615 -617 0
-615 -618 0
-615 -619 0
-615 -620 0
-615 -621 0
-615 -622 0
-615 -623 0
-615 -624 0
-615 -625 0
-616 -617 0
-616 -618 0
-616 -619 0
-616 -620 0
-616 -621 0
-616 -622 0
-616 -623 0
-616 -624 0
-616 -625 0
-617 -618 0
-617 -619 0
-617 -620 0
-617 -621 0
-617 -622 0
-617 -623 0
-617 -624 0
-617 -625 0
-618 -619 0
-618 -620 0
-618 -621 0
-618 -622 0
-618 -623 0
-618 -624 0
-618 -625 0
-619 -620 0
-619 -621 0
-619 -622 0
-619 -623 0
-619 -624 0
-619 -625 0
-620 -621 0
-620 -622 0
-620 -623 0
-620 -624 0
-620 -625 0
-621 -622 0
-621 -623 0
-621 -624 0
-621 -625 0
-622 -623 0
-622 -624 0
-622 -625 0
-623 -624 0
-623 -625 0
-624 -625 0
-626 -627 0
-626 -628 0
-626 -629 0
-626 -630 0
-626 -631 0
-626 -632 0
-626 -633 0
-626 -634 0
-626 -635 0
-626 -636 0
-626 -637 0
-626 -638 0
-626 -639 0
-626 -640 0
-626 -641 0
-626 -642 0
-626 -643 0
-626 -644 0
-626 -645 0
-626 -646 0
-626 -647 0
-626 -648 0
-626 -649 0
-626 -650 0
-627 -628 0
-627 -629 0
-627 -630 0
-627 -631 0
-627 -632 0
-627 -633 0
-627 -634 0
-627 -635 0
-627 -636 0
-627 -637 0
-627 -638 0
-627 -639 0
-627 -640 0
-627 -641 0
-627 -642 0
-627 -643 0
-627 -644 0
-627 -645 0
-627 -646 0
-627 -647 0
-627 -648 0
-627 -649 0
-627 -650 0
-628 -629 0
-628 -630 0
-628 -631 0
-628 -632 0
-628 -633 0
-628 -634 0
-628 -635 0
-628 -636 0
-628 -637 0
-628 -638 0
-628 -639 0
-628 -640 0
-628 -641 0
-628 -642 0
-628 -643 0
-628 -644 0
-628 -645 0
-628 -646 0
-628 -647 0
-628 -648 0
-628 -649 0
-628 -650 0
-629 -630 0
-629 -631 0
-629 -632 0
-629 -633 0
-629 -634 0
-629 -635 0
-629 -636 0
-629 -637 0
-629 -638 0
-629 -639 0
-629 -640 0
-629 -641 0
-629 -642 0
-629 -643 0
-629 -644 0
-629 -645 0
-629 -646 0
-629 -647 0
-629 -648 0
-629 -649 0
-629 -650 0
-630 -631 0
-630 -632 0
-630 -633 0
-630 -634 0
-630 -635 0
-630 -636 0
-630 -637 0
-630 -638 0
-630 -639 0
-630 -640 0
-630 -641 0
-630 -642 0
-630 -643 0
-630 -644 0
-630 -645 0
-630 -646 0
-630 -647 0
-630 -648 0
-630 -649 0
-630 -650 0
-631 -632 0
-631 -633 0
-631 -634 0
-631 -635 0
-631 -636 0
-631 -637 0
-631 -638 0
-631 -639 0
-631 -640 0
-631 -641 0
-631 -642 0
-631 -643 0
-631 -644 0
-631 -645 0
-631 -646 0
-631 -647 0
-631 -648 0
-631 -649 0
-631 -650 0
-632 -633 0
-632 -634 0
-632 -635 0
-632 -636 0
-632 -637 0
-632 -638 0
-632 -639 0
-632 -640 0
-632 -641 0
-632 -642 0
-632 -643 0
-632 -644 0
-632 -645 0
-632 -646 0
-632 -647 0
-632 -648 0
-632 -649 0
-632 -650 0
-633 -634 0
-633 -635 0
-633 -636 0
-633 -637 0
-633 -638 0
-633 -639 0
-633 -640 0
-633 -641 0
-633 -642 0
-633 -643 0
-633 -644 0
-633 -645 0
-633 -646 0
-633 -647 0
-633 -648 0
-633 -649 0
-633 -650 0
-634 -635 0
-634 -636 0
-634 -637 0
-634 -638 0
-634 -639 0
-634 -640 0
-634 -641 0
-634 -642 0
-634 -643 0
-634 -644 0
-634 -645 0
-634 -646 0
-634 -647 0
-634 -648 0
-634 -649 0
-634 -650 0
-635 -636 0
-635 -637 0
-635 -638 0
-635 -639 0
-635 -640 0
-635 -641 0
-635 -642 0
-635 -643 0
-635 -644 0
-635 -645 0
-635 -646 0
-635 -647 0
-635 -648 0
-635 -649 0
-635 -650 0
-636 -637 0
-636 -638 0
-636 -639 0
-636 -640 0
-636 -641 0
-636 -642 0
-636 -643 0
-636 -644 0
-636 -645 0
-636 -646 0
-636 -647 0
-636 -648 0
-636 -649 0
-636 -650 0
-637 -638 0
-637 -639 0
-637 -640 0
-637 -641 0
-637 -642 0
-637 -643 0
-637 -644 0
-637 -645 0
-637 -646 0
-637 -647 0
-637 -648 0
-637 -649 0
-637 -650 0
-638 -639 0
-638 -640 0
-638 -641 0
-638 -642 0
-638 -643 0
-638 -644 0
-638 -645 0
-638 -646 0
-638 -647 0
-638 -648 0
-638 -649 0
-638 -650 0
-639 -640 0
-639 -641 0
-639 -642 0
-639 -643 0
-639 -644 0
-639 -645 0
-639 -646 0
-639 -647 0
-639 -648 0
-639 -649 0
-639 -650 0
-640 -641 0
-640 -642 0
-640 -643 0
-640 -644 0
-640 -645 0
-640 -646 0
-640 -647 0
-640 -648 0
-640 -649 0
-640 -650 0
-641 -642 0
-641 -643 0
-641 -644 0
-641 -645 0
-641 -646 0
-641 -647 0
-641 -648 0
-641 -649 0
-641 -650 0
-642 -643 0
-642 -644 0
-642 -645 0
-642 -646 0
-642 -647 0
-642 -648 0
-642 -649 0
-642 -650 0
-643 -644 0
-643 -645 0
-643 -646 0
-643 -647 0
-643 -648 0
-643 -649 0
-643 -650 0
-644 -645 0
-644 -646 0
-644 -647 0
-644 -648 0
-644 -649 0
-644 -650 0
-645 -646 0
-645 -647 0
-645 -648 0
-645 -649 0
-645 -650 0
-646 -647 0
-646 -648 0
-646 -649 0
-646 -650 0
-647 -648 0
-647 -649 0
-647 -650 0
-648 -649 0
-648 -650 0
-649 -650 0
-26 -51 0
-26 -76 0
-26 -101 0
-26 -126 0
-26 -151 0
-26 -176 0
-26 -201 0
-26 -226 0
-26 -251 0
-26 -276 0
-26 -301 0
-26 -326 0
-26 -351 0
-26 -376 0
-26 -401 0
-26 -426 0
-26 -451 0
-26 -476 0
-26 -501 0
-26 -526 0
-26 -551 0
-26 -576 0
-26 -601 0
-26 -626 0
-51 -76 0
-51 -101 0
-51 -126 0
-51 -151 0
-51 -176 0
-51 -201 0
-51 -226 0
-51 -251 0
-51 -276 0
-51 -301 0
-51 -326 0
-51 -351 0
-51 -376 0
-51 -401 0
-51 -426 0
-51 -451 0
-51 -476 0
-51 -501 0
-51 -526 0
-51 -551 0
-51 -576 0
-51 -601 0
-51 -626 0
-76 -101 0
-76 -126 0
-76 -151 0
-76 -176 0
-76 -201 0
-76 -226 0
-76 -251 0
-76 -276 0
-76 -301 0
-76 -326 0
-76 -351 0
-76 -376 0
-76 -401 0
-76 -426 0
-76 -451 0
-76 -476 0
-76 -501 0
-76 -526 0
-76 -551 0
-76 -576 0
-76 -601 0
-76 -626 0
-101 -126 0
-101 -151 0
-101 -176 0
-101 -201 0
-101 -226 0
-101 -251 0
-101 -276 0
-101 -301 0
-101 -326 0
-101 -351 0
-101 -376 0
-101 -401 0
-101 -426 0
-101 -451 0
-101 -476 0
-101 -501 0
-101 -526 0
-101 -551 0
-101 -576 0
-101 -601 0
-101 -626 0
-126 -151 0
-126 -176 0
-126 -201 0
-126 -226 0
-126 -251 0
-126 -276 0
-126 -301 0
-126 -326 0
-126 -351 0
-126 -376 0
-126 -401 0
-126 -426 0
-126 -451 0
-126 -476 0
-126 -501 0
-126 -526 0
-126 -551 0
-126 -576 0
-126 -601 0
-126 -626 0
-151 -176 0
-151 -201 0
-151 -226 0
-151 -251 0
-151 -276 0
-151 -301 0
-151 -326 0
-151 -351 0
-151 -376 0
-151 -401 0
-151 -426 0
-151 -451 0
-151 -476 0
-151 -501 0
-151 -526 0
-151 -551 0
-151 -576 0
-151 -601 0
-151 -626 0
-176 -201 0
-176 -226 0
-176 -251 0
-176 -276 0
-176 -301 0
-176 -326 0
-176 -351 0
-176 -376 0
-176 -401 0
-176 -426 0
-176 -451 0
-176 -476 0
-176 -501 0
-176 -526 0
-176 -551 0
-176 -576 0
-176 -601 0
-176 -626 0
-201 -226 0
-201 -251 0
-201 -276 0
-201 -301 0
-201 -326 0
-201 -351 0
-201 -376 0
-201 -401 0
-201 -426 0
-201 -451 0
-201 -476 0
-201 -501 0
-201 -526 0
-201 -551 0
-201 -576 0
-201 -601 0
-201 -626 0
-226 -251 0
-226 -276 0
-226 -301 0
-226 -326 0
-226 -351 0
-226 -376 0
-226 -401 0
-226 -426 0
-226 -451 0
-226 -476 0
-226 -501 0
-226 -526 0
-226 -551 0
-226 -576 0
-226 -601 0
-226 -626 0
-251 -276 0
-251 -301 0
-251 -326 0
-251 -351 0
-251 -376 0
-251 -401 0
-251 -426 0
-251 -451 0
-251 -476 0
-251 -501 0
-251 -526 0
-251 -551 0
-251 -576 0
-251 -601 0
-251 -626 0
-276 -301 0
-276 -326 0
-276 -351 0
-276 -376 0
-276 -401 0
-276 -426 0
-276 -451 0
-276 -476 0
-276 -501 0
-276 -526 0
-276 -551 0
-276 -576 0
-276 -601 0
-276 -626 0
-301 -326 0
-301 -351 0
-301 -376 0
-301 -401 0
-301 -426 0
-301 -451 0
-301 -476 0
-301 -501 0
-301 -526 0
-301 -551 0
-301 -576 0
-301 -601 0
-301 -626 0
-326 -351 0
-326 -376 0
-326 -401 0
-326 -426 0
-326 -451 0
-326 -476 0
-326 -501 0
-326 -526 0
-326 -551 0
-326 -576 0
-326 -601 0
-326 -626 0
-351 -376 0
-351 -401 0
-351 -426 0
-351 -451 0
-351 -476 0
-351 -501 0
-351 -526 0
-351 -551 0
-351 -576 0
-351 -601 0
-351 -626 0
-376 -401 0
-376 -426 0
-376 -451 0
-376 -476 0
-376 -501 0
-376 -526 0
-376 -551 0
-376 -576 0
-376 -601 0
-376 -626 0
-401 -426 0
-401 -451 0
-401 -476 0
-401 -501 0
-401 -526 0
-401 -551 0
-401 -576 0
-401 -601 0
-401 -626 0
-426 -451 0
-426 -476 0
-426 -501 0
-426 -526 0
-426 -551 0
-426 -576 0
-426 -601 0
-426 -626 0
-451 -476 0
-451 -501 0
-451 -526 0
-451 -551 0
-451 -576 0
-451 -601 0
-451 -626 0
-476 -501 0
-476 -526 0
-476 -551 0
-476 -576 0
-476 -601 0
-476 -626 0
-501 -526 0
-501 -551 0
-501 -576 0
-501 -601 0
-501 -626 0
-526 -551 0
-526 -576 0
-526 -601 0
-526 -626 0
-551 -576 0
-551 -601 0
-551 -626 0
-576 -601 0
-576 -626 0
-601 -626 0
-1 26 51 76 101 126 151 176 201 226 251 276 301 326 351 376 401 426 451 476 501 526 551 576 601 626 0
-2 26 51 76 101 126 151 176 201 226 251 276 301 326 351 376 401 426 451 476 501 526 551 576 601 626 0
-3 26 51 76 101 126 151 176 201 226 251 276 301 326 351 376 401 426 451 476 501 526 551 576 601 626 0
-4 26 51 76 101 126 151 176 201 226 251 276 301 326 351 376 401 426 451 476 501 526 551 576 601 626 0
-5 26 51 76 101 126 151 176 201 226 251 276 301 326 351 376 401 426 451 476 501 526 551 576 601 626 0
-6 26 51 76 101 126 151 176 201 226 251 276 301 326 351 376 401 426 451 476 501 526 551 576 601 626 0
-7 26 51 76 101 126 151 176 201 226 251 276 301 326 351 376 401 426 451 476 501 526 551 576 601 626 0
-8 26 51 76 101 126 151 176 201 226 251 276 301 326 351 376 401 426 451 476 501 526 551 576 601 626 0
-9 26 51 76 101 126 151 176 201 226 251 276 301 326 351 376 401 426 451 476 501 526 551 576 601 626 0
-10 26 51 76 101 126 151 176 201 226 251 276 301 326 351 376 401 426 451 476 501 526 551 576 601 626 0
-11 26 51 76 101 126 151 176 201 226 251 276 301 326 351 376 401 426 451 476 501 526 551 576 601 626 0
-12 26 51 76 101 126 151 176 201 226 251 276 301 326 351 376 401 426 451 476 501 526 551 576 601 626 0
-13 26 51 76 101 126 151 176 201 226 251 276 301 326 351 376 401 426 451 476 501 526 551 576 601 626 0
-14 26 51 76 101 126 151 176 201 226 251 276 301 326 351 376 401 426 451 476 501 526 551 576 601 626 0
-15 26 51 76 101 126 151 176 201 226 251 276 301 326 351 376 401 426 451 476 501 526 551 576 601 626 0
-16 26 51 76 101 126 151 176 201 226 251 276 301 326 351 376 401 426 451 476 501 526 551 576 601 626 0
-17 26 51 76 101 126 151 176 201 226 251 276 301 326 351 376 401 426 451 476 501 526 551 576 601 626 0
-18 26 51 76 101 126 151 176 201 226 251 276 301 326 351 376 401 426 451 476 501 526 551 576 601 626 0
-19 26 51 76 101 126 151 176 201 226 251 276 301 326 351 376 401 426 451 476 501 526 551 576 601 626 0
-20 26 51 76 101 126 151 176 201 226 251 276 301 326 351 376 401 426 451 476 501 526 551 576 601 626 0
-21 26 51 76 101 126 151 176 201 226 251 276 301 326 351 376 401 426 451 476 501 526 551 576 601 626 0
-22 26 51 76 101 126 151 176 201 226 251 276 301 326 351 376 401 426 451 476 501 526 551 576 601 626 0
-23 26 51 76 101 126 151 176 201 226 251 276 301 326 351 376 401 426 451 476 501 526 551 576 601 626 0
-24 26 51 76 101 126 151 176 201 226 251 276 301 326 351 376 401 426 451 476 501 526 551 576 601 626 0
-25 26 51 76 101 126 151 176 201 226 251 276 301 326 351 376 401 426 451 476 501 526 551 576 601 626 0
-27 151 51 0
-28 152 52 0
-29 153 53 0
-30 154 54 0
-31 155 55 0
-32 156 56 0
-33 157 57 0
-34 158 58 0
-35 159 59 0
-36 160 60 0
-37 161 61 0
-38 162 62 0
-39 163 63 0
-40 164 64 0
-41 165 65 0
-42 166 66 0
-43 167 67 0
-44 168 68 0
-45 169 69 0
-46 170 70 0
-47 171 71 0
-48 172 72 0
-49 173 73 0
-50 174 74 0
-52 176 26 76 0
-53 177 27 77 0
-54 178 28 78 0
-55 179 29 79 0
-56 180 30 80 0
-57 181 31 81 0
-58 182 32 82 0
-59 183 33 83 0
-60 184 34 84 0
-61 185 35 85 0
-62 186 36 86 0
-63 187 37 87 0
-64 188 38 88 0
-65 189 39 89 0
-66 190 40 90 0
-67 191 41 91 0
-68 192 42 92 0
-69 193 43 93 0
-70 194 44 94 0
-71 195 45 95 0
-72 196 46 96 0
-73 197 47 97 0
-74 198 48 98 0
-75 199 49 99 0
-77 201 51 101 0
-78 202 52 102 0
-79 203 53 103 0
-80 204 54 104 0
-81 205 55 105 0
-82 206 56 106 0
-83 207 57 107 0
-84 208 58 108 0
-85 209 59 109 0
-86 210 60 110 0
-87 211 61 111 0
-88 212 62 112 0
-89 213 63 113 0
-90 214 64 114 0
-91 215 65 115 0
-92 216 66 116 0
-93 217 67 117 0
-94 218 68 118 0
-95 219 69 119 0
-96 220 70 120 0
-97 221 71 121 0
-98 222 72 122 0
-99 223 73 123 0
-100 224 74 124 0
-102 226 76 126 0
-103 227 77 127 0
-104 228 78 128 0
-105 229 79 129 0
-106 230 80 130 0
-107 231 81 131 0
-108 232 82 132 0
-109 233 83 133 0
-110 234 84 134 0
-111 235 85 135 0
-112 236 86 136 0
-113 237 87 137 0
-114 238 88 138 0
-115 239 89 139 0
-116 240 90 140 0
-117 241 91 141 0
-118 242 92 142 0
-119 243 93 143 0
-120 244 94 144 0
-121 245 95 145 0
-122 246 96 146 0
-123 247 97 147 0
-124 248 98 148 0
-125 249 99 149 0
-127 251 101 0
-128 252 102 0
-129 253 103 0
-130 254 104 0
-131 255 105 0
-132 256 106 0
-133 257 107 0
-134 258 108 0
-135 259 109 0
-136 260 110 0
-137 261 111 0
-138 262 112 0
-139 263 113 0
-140 264 114 0
-141 265 115 0
-142 266 116 0
-143 267 117 0
-144 268 118 0
-145 269 119 0
-146 270 120 0
-147 271 121 0
-148 272 122 0
-149 273 123 0
-150 274 124 0
-152 26 276 176 0
-153 27 277 177 0
-154 28 278 178 0
-155 29 279 179 0
-156 30 280 180 0
-157 31 281 181 0
-158 32 282 182 0
-159 33 283 183 0
-160 34 284 184 0
-161 35 285 185 0
-162 36 286 186 0
-163 37 287 187 0
-164 38 288 188 0
-165 39 289 189 0
-166 40 290 190 0
-167 41 291 191 0
-168 42 292 192 0
-169 43 293 193 0
-170 44 294 194 0
-171 45 295 195 0
-172 46 296 196 0
-173 47 297 197 0
-174 48 298 198 0
-175 49 299 199 0
-177 51 301 151 201 0
-178 52 302 152 202 0
-179 53 303 153 203 0
-180 54 304 154 204 0
-181 55 305 155 205 0
-182 56 306 156 206 0
-183 57 307 157 207 0
-184 58 308 158 208 0
-185 59 309 159 209 0
-186 60 310 160 210 0
-187 61 311 161 211 0
-188 62 312 162 212 0
-189 63 313 163 213 0
-190 64 314 164 214 0
-191 65 315 165 215 0
-192 66 316 166 216 0
-193 67 317 167 217 0
-194 68 318 168 218 0
-195 69 319 169 219 0
-196 70 320 170 220 0
-197 71 321 171 221 0
-198 72 322 172 222 0
-199 73 323 173 223 0
-200 74 324 174 224 0
-202 76 326 176 226 0
-203 77 327 177 227 0
-204 78 328 178 228 0
-205 79 329 179 229 0
-206 80 330 180 230 0
-207 81 331 181 231 0
-208 82 332 182 232 0
-209 83 333 183 233 0
-210 84 334 184 234 0
-211 85 335 185 235 0
-212 86 336 186 236 0
-213 87 337 187 237 0
-214 88 338 188 238 0
-215 89 339 189 239 0
-216 90 340 190 240 0
-217 91 341 191 241 0
-218 92 342 192 242 0
-219 93 343 193 243 0
-220 94 344 194 244 0
-221 95 345 195 245 0
-222 96 346 196 246 0
-223 97 347 197 247 0
-224 98 348 198 248 0
-225 99 349 199 249 0
-227 101 351 201 251 0
-228 102 352 202 252 0
-229 103 353 203 253 0
-230 104 354 204 254 0
-231 105 355 205 255 0
-232 106 356 206 256 0
-233 107 357 207 257 0
-234 108 358 208 258 0
-235 109 359 209 259 0
-236 110 360 210 260 0
-237 111 361 211 261 0
-238 112 362 212 262 0
-239 113 363 213 263 0
-240 114 364 214 264 0
-241 115 365 215 265 0
-242 116 366 216 266 0
-243 117 367 217 267 0
-244 118 368 218 268 0
-245 119 369 219 269 0
-246 120 370 220 270 0
-247 121 371 221 271 0
-248 122 372 222 272 0
-249 123 373 223 273 0
-250 124 374 224 274 0
-252 126 376 226 0
-253 127 377 227 0
-254 128 378 228 0
-255 129 379 229 0
-256 130 380 230 0
-257 131 381 231 0
-258 132 382 232 0
-259 133 383 233 0
-260 134 384 234 0
-261 135 385 235 0
-262 136 386 236 0
-263 137 387 237 0
-264 138 388 238 0
-265 139 389 239 0
-266 140 390 240 0
-267 141 391 241 0
-268 142 392 242 0
-269 143 393 243 0
-270 144 394 244 0
-271 145 395 245 0
-272 146 396 246 0
-273 147 397 247 0
-274 148 398 248 0
-275 149 399 249 0
-277 151 401 301 0
-278 152 402 302 0
-279 153 403 303 0
-280 154 404 304 0
-281 155 405 305 0
-282 156 406 306 0
-283 157 407 307 0
-284 158 408 308 0
-285 159 409 309 0
-286 160 410 310 0
-287 161 411 311 0
-288 162 412 312 0
-289 163 413 313 0
-290 164 414 314 0
-291 165 415 315 0
-292 166 416 316 0
-293 167 417 317 0
-294 168 418 318 0
-295 169 419 319 0
-296 170 420 320 0
-297 171 421 321 0
-298 172 422 322 0
-299 173 423 323 0
-300 174 424 324 0
-302 176 426 276 326 0
-303 177 427 277 327 0
-304 178 428 278 328 0
-305 179 429 279 329 0
-306 180 430 280 330 0
-307 181 431 281 331 0
-308 182 432 282 332 0
-309 183 433 283 333 0
-310 184 434 284 334 0
-311 185 435 285 335 0
-312 186 436 286 336 0
-313 187 437 287 337 0
-314 188 438 288 338 0
-315 189 439 289 339 0
-316 190 440 290 340 0
-317 191 441 291 341 0
-318 192 442 292 342 0
-319 193 443 293 343 0
-320 194 444 294 344 0
-321 195 445 295 345 0
-322 196 446 296 346 0
-323 197 447 297 347 0
-324 198 448 298 348 0
-325 199 449 299 349 0
-327 201 451 301 351 0
-328 202 452 302 352 0
-329 203 453 303 353 0
-330 204 454 304 354 0
-331 205 455 305 355 0
-332 206 456 306 356 0
-333 207 457 307 357 0
-334 208 458 308 358 0
-335 209 459 309 359 0
-336 210 460 310 360 0
-337 211 461 311 361 0
-338 212 462 312 362 0
-339 213 463 313 363 0
-340 214 464 314 364 0
-341 215 465 315 365 0
-342 216 466 316 366 0
-343 217 467 317 367 0
-344 218 468 318 368 0
-345 219 469 319 369 0
-346 220 470 320 370 0
-347 221 471 321 371 0
-348 222 472 322 372 0
-349 223 473 323 373 0
-350 224 474 324 374 0
-352 226 476 326 376 0
-353 227 477 327 377 0
-354 228 478 328 378 0
-355 229 479 329 379 0
-356 230 480 330 380 0
-357 231 481 331 381 0
-358 232 482 332 382 0
-359 233 483 333 383 0
-360 234 484 334 384 0
-361 235 485 335 385 0
-362 236 486 336 386 0
-363 237 487 337 387 0
-364 238 488 338 388 0
-365 239 489 339 389 0
-366 240 490 340 390 0
-367 241 491 341 391 0
-368 242 492 342 392 0
-369 243 493 343 393 0
-370 244 494 344 394 0
-371 245 495 345 395 0
-372 246 496 346 396 0
-373 247 497 347 397 0
-374 248 498 348 398 0
-375 249 499 349 399 0
-377 251 501 351 0
-378 252 502 352 0
-379 253 503 353 0
-380 254 504 354 0
-381 255 505 355 0
-382 256 506 356 0
-383 257 507 357 0
-384 258 508 358 0
-385 259 509 359 0
-386 260 510 360 0
-387 261 511 361 0
-388 262 512 362 0
-389 263 513 363 0
-390 264 514 364 0
-391 265 515 365 0
-392 266 516 366 0
-393 267 517 367 0
-394 268 518 368 0
-395 269 519 369 0
-396 270 520 370 0
-397 271 521 371 0
-398 272 522 372 0
-399 273 523 373 0
-400 274 524 374 0
-402 276 526 426 0
-403 277 527 427 0
-404 278 528 428 0
-405 279 529 429 0
-406 280 530 430 0
-407 281 531 431 0
-408 282 532 432 0
-409 283 533 433 0
-410 284 534 434 0
-411 285 535 435 0
-412 286 536 436 0
-413 287 537 437 0
-414 288 538 438 0
-415 289 539 439 0
-416 290 540 440 0
-417 291 541 441 0
-418 292 542 442 0
-419 293 543 443 0
-420 294 544 444 0
-421 295 545 445 0
-422 296 546 446 0
-423 297 547 447 0
-424 298 548 448 0
-425 299 549 449 0
-427 301 551 401 451 0
-428 302 552 402 452 0
-429 303 553 403 453 0
-430 304 554 404 454 0
-431 305 555 405 455 0
-432 306 556 406 456 0
-433 307 557 407 457 0
-434 308 558 408 458 0
-435 309 559 409 459 0
-436 310 560 410 460 0
-437 311 561 411 461 0
-438 312 562 412 462 0
-439 313 563 413 463 0
-440 314 564 414 464 0
-441 315 565 415 465 0
-442 316 566 416 466 0
-443 317 567 417 467 0
-444 318 568 418 468 0
-445 319 569 419 469 0
-446 320 570 420 470 0
-447 321 571 421 471 0
-448 322 572 422 472 0
-449 323 573 423 473 0
-450 324 574 424 474 0
-452 326 576 426 476 0
-453 327 577 427 477 0
-454 328 578 428 478 0
-455 329 579 429 479 0
-456 330 580 430 480 0
-457 331 581 431 481 0
-458 332 582 432 482 0
-459 333 583 433 483 0
-460 334 584 434 484 0
-461 335 585 435 485 0
-462 336 586 436 486 0
-463 337 587 437 487 0
-464 338 588 438 488 0
-465 339 589 439 489 0
-466 340 590 440 490 0
-467 341 591 441 491 0
-468 342 592 442 492 0
-469 343 593 443 493 0
-470 344 594 444 494 0
-471 345 595 445 495 0
-472 346 596 446 496 0
-473 347 597 447 497 0
-474 348 598 448 498 0
-475 349 599 449 499 0
-477 351 601 451 501 0
-478 352 602 452 502 0
-479 353 603 453 503 0
-480 354 604 454 504 0
-481 355 605 455 505 0
-482 356 606 456 506 0
-483 357 607 457 507 0
-484 358 608 458 508 0
-485 359 609 459 509 0
-486 360 610 460 510 0
-487 361 611 461 511 0
-488 362 612 462 512 0
-489 363 613 463 513 0
-490 364 614 464 514 0
-491 365 615 465 515 0
-492 366 616 466 516 0
-493 367 617 467 517 0
-494 368 618 468 518 0
-495 369 619 469 519 0
-496 370 620 470 520 0
-497 371 621 471 521 0
-498 372 622 472 522 0
-499 373 623 473 523 0
-500 374 624 474 524 0
-502 376 626 476 0
-503 377 627 477 0
-504 378 628 478 0
-505 379 629 479 0
-506 380 630 480 0
-507 381 631 481 0
-508 382 632 482 0
-509 383 633 483 0
-510 384 634 484 0
-511 385 635 485 0
-512 386 636 486 0
-513 387 637 487 0
-514 388 638 488 0
-515 389 639 489 0
-516 390 640 490 0
-517 391 641 491 0
-518 392 642 492 0
-519 393 643 493 0
-520 394 644 494 0
-521 395 645 495 0
-522 396 646 496 0
-523 397 647 497 0
-524 398 648 498 0
-525 399 649 499 0
-527 401 551 0
-528 402 552 0
-529 403 553 0
-530 404 554 0
-531 405 555 0
-532 406 556 0
-533 407 557 0
-534 408 558 0
-535 409 559 0
-536 410 560 0
-537 411 561 0
-538 412 562 0
-539 413 563 0
-540 414 564 0
-541 415 565 0
-542 416 566 0
-543 417 567 0
-544 418 568 0
-545 419 569 0
-546 420 570 0
-547 421 571 0
-548 422 572 0
-549 423 573 0
-550 424 574 0
-552 426 526 576 0
-553 427 527 577 0
-554 428 528 578 0
-555 429 529 579 0
-556 430 530 580 0
-557 431 531 581 0
-558 432 532 582 0
-559 433 533 583 0
-560 434 534 584 0
-561 435 535 585 0
-562 436 536 586 0
-563 437 537 587 0
-564 438 538 588 0
-565 439 539 589 0
-566 440 540 590 0
-567 441 541 591 0
-568 442 542 592 0
-569 443 543 593 0
-570 444 544 594 0
-571 445 545 595 0
-572 446 546 596 0
-573 447 547 597 0
-574 448 548 598 0
-575 449 549 599 0
-577 451 551 601 0
-578 452 552 602 0
-579 453 553 603 0
-580 454 554 604 0
-581 455 555 605 0
-582 456 556 606 0
-583 457 557 607 0
-584 458 558 608 0
-585 459 559 609 0
-586 460 560 610 0
-587 461 561 611 0
-588 462 562 612 0
-589 463 563 613 0
-590 464 564 614 0
-591 465 565 615 0
-592 466 566 616 0
-593 467 567 617 0
-594 468 568 618 0
-595 469 569 619 0
-596 470 570 620 0
-597 471 571 621 0
-598 472 572 622 0
-599 473 573 623 0
-600 474 574 624 0
-602 476 576 626 0
-603 477 577 627 0
-604 478 578 628 0
-605 479 579 629 0
-606 480 580 630 0
-607 481 581 631 0
-608 482 582 632 0
-609 483 583 633 0
-610 484 584 634 0
-611 485 585 635 0
-612 486 586 636 0
-613 487 587 637 0
-614 488 588 638 0
-615 489 589 639 0
-616 490 590 640 0
-617 491 591 641 0
-618 492 592 642 0
-619 493 593 643 0
-620 494 594 644 0
-621 495 595 645 0
-622 496 596 646 0
-623 497 597 647 0
-624 498 598 648 0
-625 499 599 649 0
-627 501 601 0
-628 502 602 0
-629 503 603 0
-630 504 604 0
-631 505 605 0
-632 506 606 0
-633 507 607 0
-634 508 608 0
-635 509 609 0
-636 510 610 0
-637 511 611 0
-638 512 612 0
-639 513 613 0
-640 514 614 0
-641 515 615 0
-642 516 616 0
-643 517 617 0
-644 518 618 0
-645 519 619 0
-646 520 620 0
-647 521 621 0
-648 522 622 0
-649 523 623 0
-650 524 624 0
